 $contrl scftyp=reks runtyp=gradient dfttyp=bhhlyp icharg=0
         maxit=500 mult=1
 $end
 $dft sg1=.true. $end
 $scf
 nconv=6
 npunch=2
 $end
$reks
 rexType=0
 rexTarget=0
wpps=0.5
rexShift=0.0
rexDIIS=no
$end
 $basis gbasis=n31 ngauss=6 ndfunc=1 $end
 $guess guess=moread norb=106 $end
 $system timlim=999999100 mwords=700 $end
 $data
TME planar S0 state
 c1
Ti 22.0 -1.616636    0.656520    0.857481  
Ti 22.0 2.265088   -0.268274    0.514860  
O  8.0 0.321234    0.190969    0.660789  
O  8.0 -2.266158    1.033202    2.386633  
O  8.0 3.258007   -0.282900    1.899051  
O  8.0 1.540038   -1.778741   -0.255275  
Ti 22.0 0.452557    1.355073   -0.993506  
O  8.0 0.016948   -0.129841   -1.920700  
Ti 22.0 -0.152286   -1.333916   -0.588040  
O  8.0 -1.783296   -0.986980    0.038062  
O  8.0 -1.130530    1.915066   -0.399532  
O  8.0  2.192804    1.123305   -0.692866  
 $end
 $VEC   
 1  1-6.60253613E-06-1.32534013E-07-6.16149015E-07-6.74438382E-07 7.67257522E-07
 1  2-3.21440897E-05-4.95311236E-06 3.69233861E-06 6.71113615E-06 7.46054519E-05
 1  3-3.44281884E-05 8.43030559E-06 4.80220247E-05 2.47315161E-04 7.69732208E-05
 1  4 4.16681065E-05-6.75066831E-05-2.51406721E-05-2.04753977E-05-2.21338688E-05
 1  5 9.85319817E-07 2.82271116E-06 2.79103322E-06 1.27657116E-05 7.80416287E-06
 1  6 4.39681136E-06-1.22356709E-05 4.62894502E-06-8.92350353E-07-3.10080488E-06
 1  7-4.67424087E-06 7.78101833E-06-5.44160736E-06 3.07377318E-06-3.48288211E-06
 1  8 2.15543496E-06-6.44741912E-06-2.18034302E-06 7.04530224E-07-6.78630213E-06
 1  9-1.31755304E-07 3.67269191E-07-9.08794786E-07 6.80870846E-07-3.21584777E-05
 1 10 7.11247740E-06 8.16063425E-07 5.64184207E-06 7.45733501E-05 4.19680503E-05
 1 11-9.78393550E-06 4.12642911E-05 2.47283070E-04-6.01717370E-05 7.43464410E-05
 1 12-5.53919929E-05-2.51530643E-05-2.09868659E-05-2.16175107E-05 2.22560130E-06
 1 13-5.76673528E-07 3.48940451E-06 1.86014263E-05 2.28243721E-07 6.15229531E-06
 1 14 5.31898762E-06-7.06300386E-06 2.10669644E-07 3.97759713E-08-8.83556047E-06
 1 15 5.48494271E-06-2.79465272E-06 4.11110828E-06 3.62352681E-06 2.18611557E-06
 1 16 5.09340741E-06-4.68731471E-06-1.35206292E-06 2.84590950E-06-2.41902586E-06
 1 17 1.04946680E-06 7.00665331E-06-7.03901330E-06-7.69693903E-05 2.28609539E-06
 1 18 1.15943252E-05-5.40456226E-06 8.38697975E-07 1.93920170E-05 3.71221421E-05
 1 19 2.33470367E-06-3.91424417E-06-3.20357277E-05 1.98914753E-06 8.36919625E-06
 1 20-1.01088203E-06 1.68242211E-09-7.48601950E-07-3.66758294E-05 2.05799567E-06
 1 21 6.24249875E-07 7.61780663E-06 7.45013052E-06 6.92121653E-06 2.38466910E-06
 1 22 1.17470094E-06 2.51358016E-07-1.17754444E-06 1.98905982E-06 8.37203731E-06
 1 23 7.64240624E-07-4.21506057E-07-9.04728648E-07-3.66854069E-05-2.56837989E-07
 1 24 1.17734007E-06 7.83167302E-06 6.18917161E-06 7.89775677E-06 2.66520351E-06
 1 25-1.01802893E-06-1.54235470E-06-5.26068254E-07 2.31464164E-06 6.62796353E-06
 1 26-2.29756854E-06 3.76145129E-06-9.32621535E-07-2.13630162E-05 8.42781634E-06
 1 27-9.97473137E-06 1.62169702E-06 1.02011359E-05 4.76731662E-06 9.82940879E-06
 1 28 2.86796988E-06-2.54947738E-07 9.80572236E-07 9.96407689E-01-1.24913966E-02
 1 29 1.87700380E-06 7.08362349E-06-1.59865252E-06 2.07272825E-02-5.84339993E-06
 1 30-2.93988663E-05 1.47905303E-05-6.68566546E-04-1.84886917E-05-9.03709229E-05
 1 31 3.45361730E-05-9.25631162E-04 3.93412668E-05 2.25179345E-04-1.62171706E-04
 1 32 8.22167286E-03 8.21023064E-03 8.21176083E-03-3.21793281E-06-7.36912027E-07
 1 33 1.52115711E-06 1.79908346E-04 2.49375061E-04 2.41185395E-04 2.03075805E-05
 1 34 6.47469677E-06-1.13150163E-06-1.89931745E-06 1.97642118E-05-1.47962847E-05
 1 35 3.35714929E-06-1.52355431E-05 4.98516233E-06-6.47429488E-06 4.32176611E-06
 1 36 1.31305994E-05 3.93099801E-06 1.57581124E-06 3.52969866E-05 8.58496297E-06
 1 37 2.98468834E-05 1.66896028E-05-1.17692335E-04-8.60277676E-07-1.57557550E-06
 1 38-5.69075425E-06 1.44768463E-05 2.08323933E-05 1.55927386E-05 1.93522114E-06
 1 39 3.29028200E-07 6.63777099E-07-2.42450651E-04 2.15967383E-08-2.77670377E-07
 1 40-1.24010970E-06 2.00217395E-07-5.55635280E-05 2.07665620E-06 7.93116809E-06
 1 41 2.14994807E-06-2.40186735E-06 7.36690217E-06 2.53855828E-05 1.51035616E-05
 1 42 2.67943099E-04 1.85629384E-05 9.16107673E-05-3.70468991E-05-2.28927493E-05
 1 43-3.44133884E-05-2.75143085E-05-3.40430761E-06-6.27466709E-07-3.36455799E-07
 1 44-7.84337021E-06 2.92626416E-06 7.79574157E-06 3.65026261E-06 2.84430157E-06
 1 45 4.83271751E-06-4.43725664E-06-1.29490855E-05 1.65055937E-06-8.11477479E-06
 1 46 5.16351249E-07 5.41223947E-08 8.07560101E-07-9.65919417E-07-4.64800307E-06
 1 47 5.45011842E-07 2.31368040E-06 6.62459805E-06 3.54877495E-06 2.36745041E-06
 1 48-1.44748621E-06-2.13458950E-05-1.15980866E-05-5.19251063E-06 3.39098151E-06
 1 49 7.33653477E-06 7.79894387E-06 9.65511916E-06-4.08069314E-06 9.94618609E-07
 1 50 1.36524667E-06-4.04533281E-06 1.43903295E-05 3.20117047E-05-9.69891938E-06
 1 51-1.32114262E-05 1.64019608E-05 2.97334178E-05-1.62010669E-05-7.94232869E-06
 1 52 3.99551033E-06-2.45937465E-07 4.03187100E-07-2.85218205E-06-6.15125917E-06
 1 53-2.41809344E-06-4.04213745E-06 1.44193484E-05-3.46641507E-05 6.18427154E-06
 1 54-7.32464251E-06 1.63300368E-05-3.46593257E-05-8.43810004E-07-2.25868770E-06
 1 55 6.21655367E-06-1.01419702E-06-1.01628033E-06-1.25806654E-06 3.20712743E-06
 1 56-4.83932237E-06
 2  1-6.80858633E-06-1.30403545E-07-2.27406777E-07 1.05608681E-06 5.07089411E-07
 2  2-3.21670318E-05-5.61393085E-06 7.73608065E-07 7.15297454E-06 7.46341164E-05
 2  3-3.17094327E-05 2.06458348E-05 4.62029505E-05 2.47493680E-04 4.80425971E-05
 2  4-8.71951929E-05-4.81164591E-05-2.48202029E-05-2.25659262E-05-2.04031350E-05
 2  5 1.57608793E-06 1.19260183E-06-3.71109728E-06 2.04094944E-05 1.70576215E-07
 2  6 4.40760862E-06 6.38085722E-06 1.66979884E-06-2.09161124E-07 1.28423014E-06
 2  7 1.01203367E-05 5.02859672E-06 2.91903508E-06 9.70053875E-07-3.60312681E-06
 2  8 2.50870558E-06-4.08180994E-06 5.80104467E-06-1.01290122E-06-6.99885251E-06
 2  9-1.28503664E-07 7.55935057E-07 8.21539957E-07 4.20090374E-07-3.21752421E-05
 2 10 6.46638622E-06-2.10358913E-06 6.08849858E-06 7.46400321E-05 4.47577286E-05
 2 11 2.42584718E-06 3.94579108E-05 2.47507622E-04-8.92225686E-05-5.44952521E-05
 2 12-3.60075577E-05-2.61032087E-05-2.17360689E-05-1.99607216E-05-2.69375457E-07
 2 13-1.65331072E-06-2.84027557E-06 1.11368830E-05 8.61786433E-06 5.25643549E-06
 2 14-1.27999805E-05-3.40028056E-06 2.92091790E-06 4.82618432E-06 5.50073889E-06
 2 15 2.93424129E-06 6.52424389E-06 3.40840923E-06 4.11898986E-06 8.60784427E-07
 2 16 6.31003756E-06 2.94451872E-06 5.64800016E-07 2.84954538E-06-2.39369957E-06
 2 17-2.43073040E-06-8.46701739E-06-4.70638957E-06-7.70879942E-05-3.14453291E-06
 2 18-1.24636055E-05-1.74543673E-06 3.80027778E-06 3.32589253E-05 2.03210311E-05
 2 19 1.17169886E-05 9.42126260E-06 3.11119913E-05 1.99071936E-06 8.37746482E-06
 2 20-9.64279424E-07 2.11126447E-07-7.80438569E-07-3.67120003E-05 2.08218484E-06
 2 21 7.44292454E-07 7.61281597E-06 6.64976472E-06 7.84083741E-06 2.27675371E-06
 2 22-7.74950345E-07 6.58300883E-07-8.45997533E-07 1.99090473E-06 8.37905599E-06
 2 23 8.12153905E-07-2.11923058E-07-9.37588140E-07-3.67174269E-05-2.32434350E-07
 2 24 1.29526889E-06 7.82108380E-06 7.02225747E-06 7.08866616E-06 2.65747749E-06
 2 25 9.98086795E-07-1.85343197E-06-4.13028817E-07-4.03883472E-06 1.44006897E-05
 2 26-3.44625283E-05 7.13440257E-06-7.46642008E-06 1.63432753E-05-3.12244707E-05
 2 27 1.46267123E-05-4.60665556E-06 6.31889619E-06 8.55407129E-07-2.93678323E-06
 2 28-8.64535727E-07 4.85612141E-06 2.37945433E-06 2.41450357E-04-6.04807528E-06
 2 29 2.81739208E-07 1.24654280E-06-1.75129006E-07-4.55223481E-05-1.31040574E-06
 2 30-7.13851717E-06 4.42741672E-06-2.80987931E-06-3.02091990E-06-2.08623174E-05
 2 31 2.20909416E-05 2.67460074E-04-2.39106421E-05-9.71522338E-05-8.66370199E-06
 2 32-1.87541846E-05-2.97263854E-05-2.43820077E-05-2.93046656E-06 5.03346781E-08
 2 33 2.87240329E-06-8.13721447E-06 1.23612186E-06 1.01221976E-05 2.43156789E-06
 2 34 1.08787949E-06-3.48936704E-06 3.95252297E-06 1.28415304E-05-1.49427449E-06
 2 35 7.97475596E-06-2.32994592E-06-9.11514105E-09-1.20549196E-06 1.34379537E-06
 2 36 4.69791631E-06-8.47785139E-08 1.58354892E-06 3.53644749E-05-3.67008285E-06
 2 37-2.46584699E-05 2.49281822E-05-1.17932456E-04-5.10482536E-07 1.12934972E-07
 2 38-6.01249236E-06 1.43626188E-05 2.02192586E-05 1.64080734E-05 1.48155974E-06
 2 39-3.27730448E-07-2.38532155E-06 9.96407772E-01-1.24911089E-02-1.90503526E-06
 2 40-7.20755232E-06 4.49000468E-07 2.07269237E-02 8.19817113E-06 3.20015516E-05
 2 41 5.60555417E-06-6.68729961E-04 2.33487447E-05 9.55578555E-05 6.50523566E-06
 2 42-9.25679176E-04-6.90223510E-05-2.56490599E-04-8.95825070E-05 8.22153272E-03
 2 43 8.20974254E-03 8.21209806E-03-3.47102322E-06-1.08144532E-06-1.71639129E-07
 2 44 1.79570246E-04 2.48392225E-04 2.42328448E-04 1.96724682E-05 5.52693442E-06
 2 45-5.56530305E-06-6.15346398E-06-2.30114803E-05-5.36055573E-06-6.05798156E-06
 2 46-1.49565100E-05-5.13767887E-06-5.23142335E-06-1.41769189E-06-1.46811772E-05
 2 47 1.90221870E-06-4.04066180E-06 1.44144566E-05 3.22392891E-05-8.74990427E-06
 2 48-1.33499915E-05 1.63444393E-05 3.32138258E-05-7.31079771E-07-1.02881929E-05
 2 49 4.63097045E-06 1.06166856E-06-1.46832501E-06-1.11417592E-06-4.74872665E-06
 2 50 4.73805205E-06 2.31302246E-06 6.63785961E-06 2.14540610E-06-3.94332129E-06
 2 51-5.03435488E-07-2.13687961E-05-8.10835140E-06 1.03048254E-05 1.05351318E-06
 2 52 1.01508197E-05 4.52844402E-06 1.01206678E-05 2.70691079E-06-4.92055050E-07
 2 53-1.08409147E-07 2.31335615E-06 6.63997294E-06-3.73487994E-06-2.54383265E-06
 2 54 1.63749615E-08-2.13732281E-05 1.19124887E-05 5.53565866E-06-7.12222763E-07
 2 55 7.29199527E-06 7.56117344E-06 9.95178840E-06-4.24487771E-06 7.64949520E-07
 2 56 2.73205457E-07
 3  1-8.38629280E-07 6.42879229E-07-1.22693869E-07 3.81587105E-08 6.96844270E-08
 3  2-2.32744273E-06 7.22526315E-06-1.71118777E-06-5.66527231E-07 3.99365292E-05
 3  3 3.26802009E-05-7.56459129E-06-1.40213702E-06 2.40097837E-04 5.79774064E-05
 3  4-2.08070503E-05-5.14917107E-05-4.51985232E-06-4.31226050E-06-4.13963510E-06
 3  5-1.88511391E-07-1.46438834E-06 3.73726052E-07 1.85830687E-05 3.73674959E-06
 3  6 3.15733101E-06-3.27821450E-06 4.70780393E-06-1.07129409E-06 1.79336289E-06
 3  7-2.03134053E-07-4.29829697E-08-8.35846513E-08 9.53322435E-07 6.96655628E-07
 3  8 4.03321306E-07 1.35805294E-06-4.50778029E-07-1.49911094E-08 9.96407428E-01
 3  9-1.24845461E-02 8.87590483E-06-8.70249642E-07 7.09838303E-06 2.07427560E-02
 3 10-2.79901372E-05 2.75704782E-06-2.30505710E-05-5.17269763E-04-8.09607794E-05
 3 11 5.77255271E-06-8.24378967E-05-5.73517397E-04 1.72298343E-04-2.11356575E-05
 3 12 1.16822778E-04 8.20934842E-03 8.20424814E-03 8.21055059E-03 1.82192027E-08
 3 13 8.72018364E-06-8.89727123E-07 2.20951995E-04 2.45319372E-04 2.16248785E-04
 3 14-8.77030097E-07-4.62793184E-05 5.50203292E-06 2.61900173E-05-1.06788506E-08
 3 15 3.91698831E-06-2.21437081E-06-3.86017290E-06 1.49420173E-05 2.01751043E-05
 3 16-3.50309832E-06-4.92806005E-06 3.58719861E-06 3.85385546E-06-1.03223413E-06
 3 17 6.33912375E-06-6.77687027E-07 4.96737067E-06-8.42947350E-05 4.67118054E-05
 3 18-1.31626854E-05-1.76517196E-05 5.90977349E-05 1.00130936E-05 6.96356753E-06
 3 19-1.47473788E-05-7.93497595E-06 1.79186420E-06 9.61398068E-08-2.01048277E-08
 3 20 1.19555242E-06-2.17614304E-07 3.40275344E-07 2.32805741E-06-3.94963484E-06
 3 21 3.83159470E-07-3.34861810E-06 1.56548419E-07 5.15391647E-07 9.50439321E-07
 3 22 9.22747730E-08-1.68142842E-08 7.85015644E-08-8.04297455E-06 1.74910483E-05
 3 23-1.99162811E-05 2.62345333E-07-2.79671657E-05 1.02386173E-04-3.41814360E-05
 3 24-1.11711850E-07-5.17361282E-05-2.09170342E-05-1.10827098E-05-2.28391612E-05
 3 25 7.27689561E-07-1.22160133E-05 6.94314241E-07-6.87565938E-07 1.22445136E-05
 3 26 1.41534070E-05 2.38812705E-05 1.12202720E-05-4.51628044E-05 1.55084548E-06
 3 27 2.28932049E-05 1.62171099E-05 9.62617455E-06 2.57204152E-05 5.64424953E-06
 3 28 7.07208255E-06 5.56558376E-06 1.15295827E-05 5.54682663E-06-1.80657857E-06
 3 29-1.02101334E-06 5.94664738E-07-6.37531215E-07-3.87964522E-05 2.23119821E-06
 3 30-1.66642203E-06-1.80307933E-06 2.58319392E-05-5.57004960E-06 1.95792098E-06
 3 31-1.71650499E-05 1.00266905E-04 1.02381193E-04-2.13961926E-05 5.79645999E-06
 3 32-2.38276386E-05-2.28911609E-05-2.08088352E-05 3.21796451E-06-1.11258967E-06
 3 33 4.15054494E-06 3.94061394E-06 6.16343364E-06-2.69652132E-06 3.88517456E-06
 3 34-7.53442424E-06-1.39998745E-06-7.20001352E-06 3.81774237E-06-6.34406748E-06
 3 35 3.58813115E-06-4.02267528E-06-4.37055481E-06-3.29123548E-06-5.45136147E-06
 3 36 7.74077263E-07 1.10981228E-06 3.77278159E-06 1.42458691E-05 4.83052408E-06
 3 37-3.04020848E-07 5.20536301E-06-5.29913644E-05-1.73214916E-05 6.09281891E-07
 3 38-2.17879470E-05 1.16867647E-05 1.54954637E-05 9.10688320E-06 1.34759425E-07
 3 39-5.65427170E-06 1.57930835E-07 5.75557932E-06-1.80890494E-06-1.21365066E-06
 3 40-2.64506284E-07-5.07767747E-07-3.87892919E-05 2.59793423E-06-3.96935867E-09
 3 41-2.05339608E-06 2.58462494E-05-6.97130725E-06-4.18364239E-06-1.62311483E-05
 3 42 1.00248422E-04 1.02068085E-04-2.28192297E-05 6.00555468E-06-2.60696318E-05
 3 43-2.23892983E-05-1.90687713E-05-2.46613134E-06-1.74669621E-06-2.55661597E-06
 3 44 1.06090688E-06 9.62896909E-06-3.29076792E-06-3.03818969E-06-5.90072557E-06
 3 45 5.91474026E-07-1.06427682E-05-1.49329652E-06-6.30961522E-06-2.91372548E-06
 3 46-3.74032558E-06-3.37102126E-06-1.51548558E-06-4.97106161E-06 4.50880718E-07
 3 47-7.71863053E-07-8.28728114E-07-2.46918004E-06-1.80522123E-06-8.34505128E-07
 3 48-3.01993487E-07 1.12714606E-05 3.34048004E-06 3.05038213E-06 2.05707588E-06
 3 49-3.29403493E-06-2.58877051E-06-3.20885435E-06 9.75987353E-07 1.62267755E-06
 3 50 7.37902259E-08-8.28965200E-07-2.47028743E-06-1.30412404E-06 1.39130839E-06
 3 51-6.37232903E-07 1.12768992E-05 1.87552752E-06-3.45402974E-06 3.03898695E-06
 3 52-3.65533962E-06-2.51198739E-06-2.92653559E-06 6.14333492E-08 1.51990188E-06
 3 53-1.01778433E-06-6.80197813E-07 1.22662960E-05 3.51134340E-06-2.34018084E-05
 3 54 1.83525514E-05-4.52630501E-05-7.14705496E-06-1.58479184E-05 2.20676217E-05
 3 55 7.84604774E-06 1.97816494E-05 1.34573888E-05 1.63541758E-06-4.23141507E-07
 3 56-1.77166119E-05
 4  1 9.96407475E-01-1.24843830E-02-7.11272576E-06 2.74378150E-06 8.60738794E-06
 4  2 2.07425456E-02 2.20770212E-05-9.03303613E-06-2.74978597E-05-5.17340681E-04
 4  3 6.00637075E-05-2.78319063E-05-9.48894569E-05-5.73581636E-04-1.41507908E-04
 4  4 5.36256653E-05 1.44530498E-04 8.20598192E-03 8.20502910E-03 8.21296043E-03
 4  5-1.52391324E-06-7.36819787E-06 3.14530907E-06 2.38650501E-04 2.40853030E-04
 4  6 2.02984977E-04 7.46034785E-06 3.97046811E-05-1.61110519E-05-2.58411675E-05
 4  7 1.17008894E-05 2.82848906E-06 4.68272154E-06 5.04789545E-06-7.56519908E-06
 4  8 2.04682343E-05 1.60312598E-06-6.91787593E-06 6.59931712E-06 3.66443190E-07
 4  9 6.27763102E-07 1.36430440E-07-2.37002855E-08 4.68285983E-08-2.30227045E-06
 4 10-7.21003188E-06 1.72861327E-06 7.06391446E-07 3.99382796E-05-3.23408758E-05
 4 11 7.92810209E-06 4.33083439E-06 2.40115742E-04-6.88026604E-05 9.40081042E-06
 4 12-4.03022429E-05-3.91052864E-06-4.45201689E-06-4.57809858E-06 9.24958538E-08
 4 13 1.43669358E-06-3.56557446E-07 1.60930661E-05 4.36624802E-06 5.02983099E-06
 4 14-4.44943144E-06-7.37340017E-06 1.97151434E-06-1.35252858E-06 4.94626502E-07
 4 15 5.55485972E-07 2.50871517E-07 6.83515866E-07-6.16230574E-07 6.22973083E-07
 4 16-1.63663638E-06 3.08712027E-07-2.14069565E-07 3.85712657E-06-1.03652768E-06
 4 17-5.05090524E-06 2.03758514E-06 5.96827578E-06-8.43188077E-05-4.98729858E-05
 4 18 9.83093292E-06-9.12204656E-06 6.01308626E-05 9.77412258E-06 6.21120566E-06
 4 19-1.42611667E-05-3.01460780E-06 5.62843657E-07-8.04102431E-06 1.74861137E-05
 4 20 1.29652040E-05-7.57600903E-06-3.08610102E-05 1.02365308E-04 2.13879678E-05
 4 21-1.33652501E-05-5.66265908E-05-1.63410011E-05-1.22222646E-05-2.62887690E-05
 4 22 2.89468339E-06 1.00878730E-05-4.90288143E-06 9.61581380E-08-1.99296371E-08
 4 23-1.09161063E-06 3.27549266E-07 5.42166244E-07 2.32700916E-06 3.08863346E-06
 4 24-1.29417385E-06-3.96859496E-06 2.01666801E-07 5.03829283E-07 9.17013030E-07
 4 25 1.13891110E-07 1.99823281E-07 2.38085333E-08-8.27684827E-07-2.46462250E-06
 4 26 1.16267855E-06-1.54039512E-06-5.63295937E-07 1.12474020E-05-1.21853914E-06
 4 27 4.13128432E-06 2.46311441E-06-4.21586386E-06-2.10554201E-06-2.76269558E-06
 4 28-5.96692942E-08-1.22309539E-06 8.65551760E-07 5.36255993E-06-1.80364160E-06
 4 29 1.05706722E-06 9.91457980E-08-8.20317721E-07-3.87975705E-05-2.99712654E-06
 4 30-4.15346875E-07-1.34402087E-06 2.58699906E-05 2.95346243E-06-5.07155854E-08
 4 31-1.79171305E-05 1.00283678E-04-9.85998118E-05 2.64809685E-05 2.35369320E-05
 4 32-2.49416347E-05-2.10668251E-05-2.15299897E-05-1.05024392E-06 3.63783394E-06
 4 33 3.42166550E-06 3.29370784E-06 8.70795960E-06-4.57186915E-06-2.20509874E-06
 4 34 4.83494004E-06-3.79830974E-06 8.33000543E-06 2.49158625E-07-8.42278023E-06
 4 35 1.44373189E-06-4.91540885E-06 2.44398019E-06-2.97375148E-06 5.11825879E-06
 4 36-1.40604007E-06-1.02570194E-06 3.77259579E-06 1.42454389E-05-3.51692121E-06
 4 37 1.68580283E-06 5.94334849E-06-5.29852905E-05 1.18804490E-05-6.33995796E-06
 4 38-2.43671400E-05 1.37328776E-05 1.49788443E-05 7.57616904E-06 1.10319726E-06
 4 39 4.26135281E-06-2.33608975E-06 5.56578095E-06-1.80674413E-06 8.63733621E-07
 4 40-7.59503943E-07-6.91224661E-07-3.87857467E-05-2.62882045E-06 1.24330746E-06
 4 41-1.59144816E-06 2.58354886E-05 1.54595912E-06-6.20389971E-06-1.69847103E-05
 4 42 1.00266018E-04-9.89069544E-05 2.50643542E-05 2.37491517E-05-2.33415016E-05
 4 43-2.46130486E-05-1.95538106E-05 2.56495275E-06 1.32943140E-06-3.79839677E-06
 4 44 6.32672368E-06 5.93650649E-06-4.82288217E-06 5.18826056E-06 3.87098016E-06
 4 45-2.60061139E-06 5.42135902E-06-5.66220523E-06-8.11830934E-06-3.78714007E-06
 4 46-2.77737321E-06 4.25485624E-06-3.42122886E-06 4.06196919E-06-2.18616418E-06
 4 47 1.90519777E-06-6.76903885E-07 1.22895375E-05 1.17324704E-07 2.72452679E-05
 4 48 1.24595171E-05-4.53466486E-05 1.15364358E-05 2.04699017E-05 1.53434697E-05
 4 49 8.02749903E-06 2.65286146E-05 6.55531829E-06 5.43341802E-06 3.31487957E-08
 4 50 1.30300029E-05-6.84415550E-07 1.22487857E-05-1.05203875E-05-2.00542410E-05
 4 51 1.95890649E-05-4.51940122E-05 2.85309856E-06-1.82360205E-05 2.11900309E-05
 4 52 7.08171610E-06 1.95958917E-05 1.43479613E-05 2.15759750E-06-6.34581874E-06
 4 53-1.63402402E-05-8.27909916E-07-2.46527610E-06 1.66376381E-06 6.85199148E-07
 4 54-8.99285131E-07 1.12519036E-05-2.68413768E-06-2.36737443E-06 3.44229796E-06
 4 55-3.96137379E-06-2.68028244E-06-2.44402445E-06 5.18627702E-07-1.59502992E-06
 4 56-3.07858451E-07
 5  1 8.18752601E-07 3.97924670E-06 4.79250858E-07 4.40015268E-07-1.04791415E-06
 5  2 1.22435244E-04 3.20112641E-06-8.22813256E-07-5.78913299E-06-4.63693725E-05
 5  3-3.45838557E-06-3.85317115E-06-2.50197269E-05-5.97866062E-04-1.71525551E-04
 5  4-1.44591694E-04 1.41842612E-04 7.84213374E-05 6.15991527E-05 7.51917942E-05
 5  5-2.02439561E-06-1.86483397E-05-3.48188206E-06-4.19735944E-05 9.41833124E-06
 5  6-5.27687413E-05 1.61688136E-05 7.47721128E-05-9.23647145E-06 1.25372414E-05
 5  7 1.36905676E-05-3.14742567E-05-1.70198382E-06 9.68750235E-06 1.65072933E-05
 5  8-1.08893831E-05 2.94585218E-06 1.00494470E-06 9.35470786E-06 7.78583853E-07
 5  9 3.75930792E-06-3.91212114E-07 6.36582558E-07-9.58177062E-07 1.22115414E-04
 5 10-4.38804966E-06 1.07036116E-06-5.44710662E-06-4.82085268E-05-4.03375216E-06
 5 11-3.43820052E-06-2.64538733E-05-5.99827404E-04 1.09860809E-04-2.12331938E-04
 5 12 1.17906305E-04 8.05768599E-05 6.43321868E-05 7.02462529E-05-8.97558910E-06
 5 13 1.36145949E-05-1.05324228E-05-6.33165727E-05 8.28252690E-06-3.10661764E-05
 5 14 2.10119474E-05-6.79296615E-05 2.46059250E-05-1.56687278E-05 2.32976254E-05
 5 15-2.86923616E-05-5.66846237E-06 3.27060629E-07-8.75872075E-08 8.10917253E-07
 5 16-9.91634461E-06 7.99862688E-06-1.31304979E-05-1.65523362E-06-4.56235625E-06
 5 17-1.52284455E-06-1.70045381E-05 2.73463538E-05-2.38504356E-05-1.91361195E-05
 5 18-1.12650854E-04 8.70667194E-05 1.74141941E-05-1.18922830E-05-2.31049988E-05
 5 19-5.23449427E-06 3.60839082E-06 3.26298646E-05-4.08095297E-06-2.06720220E-05
 5 20 2.10334883E-06-1.11187080E-06-9.58548755E-07 1.03921757E-04 5.75731374E-06
 5 21-1.11447504E-05-4.83931981E-05-1.89894841E-05-1.53281454E-05 7.23969779E-06
 5 22-3.35949286E-06-4.02993058E-06 8.92032027E-06-4.13445220E-06-2.09154124E-05
 5 23-2.50667499E-06-1.18646789E-08-5.20478433E-07 1.05016780E-04-1.81405627E-05
 5 24-5.39961070E-06-4.64759532E-05-1.32377876E-05-1.89439147E-05 4.62270737E-06
 5 25 4.13120527E-06 1.17794110E-05 4.28858549E-06-8.37811690E-06-3.68244828E-05
 5 26 4.80326375E-06-8.04838313E-06 2.58620137E-06 1.40843233E-04-3.29506463E-05
 5 27 5.41198946E-05-1.30446352E-05-3.08483968E-05-9.85341839E-06-3.29513361E-05
 5 28-1.01621128E-05 1.45616367E-06-5.17455369E-06 2.95373113E-01 1.03421320E+00
 5 29-4.09879962E-05 4.93803765E-04-9.37228465E-04 4.41877448E-02-2.29983799E-05
 5 30-4.19536282E-05-4.82413884E-05 2.62440362E-03-5.65706268E-05-2.70183122E-04
 5 31 1.14349290E-04 2.57656306E-03-6.64909595E-05-4.28939264E-04 3.88294375E-04
 5 32 1.23308086E-02 1.21980565E-02 1.22246976E-02-3.43440557E-05-3.35805221E-06
 5 33 2.27723993E-05 2.49719083E-03 2.50702557E-03 2.44949079E-03-3.89979480E-06
 5 34-2.00721126E-05-5.54011427E-05 2.11720012E-05-5.58031806E-06 3.90269767E-05
 5 35 1.38189916E-05 3.57525605E-05-8.95378294E-06 1.18628341E-05-7.66751293E-06
 5 36-2.70098043E-05-1.25421067E-05-7.71041123E-06-2.92365197E-05-6.03938897E-06
 5 37-2.15293529E-05-1.06553585E-05-8.47747654E-05-2.20415489E-05-7.65551408E-05
 5 38-4.46254126E-05-2.40497333E-05 3.37091420E-05 3.06939631E-06 2.11686328E-05
 5 39 1.38768983E-05 4.47362853E-05-3.94127040E-05-1.30906713E-04 9.73963125E-09
 5 40 1.26820731E-07-7.28001913E-08 1.31787750E-04-6.96307300E-06-2.68208952E-05
 5 41-6.65964138E-06 8.86729518E-05-4.66180872E-05-1.83671725E-04-3.22708705E-05
 5 42-7.05339188E-04-3.91314228E-05-1.93692430E-04 8.07869618E-05 5.63505306E-05
 5 43 8.67904518E-05 5.88753620E-05 8.84382407E-06 4.07586456E-07-2.06630911E-07
 5 44-3.36879841E-06-9.11240119E-05 2.75202292E-05-2.60470982E-05 1.35728070E-06
 5 45-5.02346082E-06 1.06892374E-05-1.09501405E-05-6.69016206E-06 1.93432666E-05
 5 46-5.29228855E-06-1.45155092E-05 3.84446098E-06 7.13387857E-06 2.88034705E-05
 5 47 3.25346537E-06-8.39664254E-06-3.69127005E-05-7.39601234E-06-5.14947593E-06
 5 48 3.64856044E-06 1.41349147E-04 5.09709078E-05 3.41528280E-05-2.04962490E-05
 5 49-2.09180177E-05-2.09658612E-05-3.20023807E-05 1.50862048E-05-5.41245314E-06
 5 50-6.02365337E-06-6.83701201E-06-2.38187336E-05-1.54257619E-05-3.06616257E-06
 5 51 7.37630239E-06-1.03167932E-04-9.23693856E-05 6.21527816E-05 2.69561125E-05
 5 52 4.15662069E-05-1.47260273E-05-2.42008174E-05-2.99753327E-05-2.53059223E-05
 5 53 7.77670182E-06-7.30648318E-06-2.38981406E-05 1.35501611E-05-1.00310355E-05
 5 54 4.63073460E-06-1.00763459E-04 1.13578980E-04 1.43356065E-05 9.06270486E-06
 5 55 5.48638118E-05-2.39345183E-05-3.01479552E-05-1.00772140E-05 9.73174796E-06
 5 56-2.74552992E-06
 6  1 7.98326960E-07 3.88530017E-06 1.76599464E-07-8.68023301E-07-8.42188110E-07
 6  2 1.22268805E-04 3.08912727E-06-2.25725304E-06-5.93907790E-06-4.75175416E-05
 6  3-2.10823402E-06-2.16421421E-06-2.69840751E-05-5.99098532E-04-8.60856097E-05
 6  4 2.36331257E-04 8.52497560E-05 7.50412974E-05 6.95497887E-05 7.04350191E-05
 6  5-9.47136290E-06-1.32926525E-05 1.37811267E-05-3.62275149E-05-6.22807011E-06
 6  6-4.41729321E-05 2.98441704E-05 6.45839320E-05-4.23018123E-05 1.53846514E-05
 6  7-2.19270154E-05-2.72739456E-05 1.24326631E-07-1.36746477E-06-5.07749187E-06
 6  8 3.80392004E-06 7.04006125E-06-1.31287997E-05-1.36537582E-05 7.24580721E-07
 6  9 3.71558923E-06-7.10041158E-07-6.76552288E-07-7.84389747E-07 1.23010614E-04
 6 10-4.39846800E-06-3.60262846E-07-4.97923292E-06-4.54772360E-05-2.30861333E-06
 6 11-1.78033722E-06-2.57318808E-05-5.96999253E-04 1.94837646E-04 1.68709024E-04
 6 12 5.97923290E-05 8.57505458E-05 6.38780861E-05 6.62100791E-05 3.46011689E-06
 6 13 1.54572988E-05 5.59655496E-06-7.23908118E-05 9.60047743E-06-2.27567194E-05
 6 14-2.22095690E-06-7.17854357E-05-6.12335355E-06-8.09566736E-06-1.78898642E-05
 6 15-2.23095376E-05 7.60841931E-06 6.10454640E-06-1.43652141E-05-4.82305517E-06
 6 16-1.99045574E-05-1.03759698E-05 7.54536217E-06-1.93055431E-06-4.40675532E-06
 6 17 7.29831287E-06 2.30503943E-05 2.13858807E-05-2.43981912E-05 3.51899331E-05
 6 18 1.30085427E-04 5.10240293E-05 1.45554155E-05-2.53128323E-05-6.73242588E-06
 6 19-1.43241706E-05-9.56689907E-06-2.93894671E-05-4.17782875E-06-2.10543119E-05
 6 20 2.29943201E-06-1.45637500E-07-1.03218137E-06 1.05705424E-04 6.91423161E-06
 6 21-6.66041439E-06-4.94752663E-05-1.71511594E-05-1.94977455E-05 8.70550323E-06
 6 22 1.61270120E-06-6.37467959E-06 2.64226935E-06-4.13026897E-06-2.09227240E-05
 6 23-2.26581952E-06 9.29317598E-07-6.64230294E-07 1.04999697E-04-1.72945747E-05
 6 24-8.31566719E-07-4.73591130E-05-1.59198350E-05-1.77002504E-05 6.16596520E-06
 6 25-2.58466893E-06 1.16360604E-05-1.31694404E-06-6.61814537E-06-2.34929045E-05
 6 26 1.68881209E-05 4.42783211E-06 2.39448784E-06-1.06326411E-04 9.95560048E-05
 6 27-5.71105368E-05 2.06732719E-05 4.94453123E-05-1.69925770E-05-2.96719474E-05
 6 28-2.62047794E-05 1.18943893E-05-4.41762497E-06 4.22897572E-05 1.55134308E-04
 6 29-3.92675752E-08-1.73952741E-08-2.90467533E-07 1.43389595E-04 4.39910266E-06
 6 30 2.40386489E-05-1.44299847E-05 8.97246080E-05 3.21480476E-05 1.67803227E-04
 6 31-8.57041943E-05-7.03229910E-04 5.12120806E-05 2.06469116E-04 2.13375187E-05
 6 32 5.91043335E-05 8.77905089E-05 6.43928538E-05 7.45708300E-06-1.51062928E-06
 6 33-9.23368429E-06-4.78626901E-07-7.91280361E-05 1.58796351E-05-1.87669017E-05
 6 34 1.12726515E-05 4.17962496E-05-1.21382522E-05 7.03117108E-06 1.20668945E-05
 6 35-2.03917291E-05 2.48043447E-07 1.23693449E-05-1.65433963E-05-4.47424900E-06
 6 36-2.40930527E-05-4.82625134E-06-7.93219844E-06-2.92951747E-05 3.02495998E-06
 6 37 1.79173540E-05-1.65057058E-05-8.24834442E-05 8.59989107E-06 6.15194227E-05
 6 38-6.56074719E-05-2.84263288E-05 1.26676696E-05 2.79429330E-05 7.27636545E-06
 6 39-6.06908618E-06-5.02459263E-05 2.95372828E-01 1.03421278E+00-1.81474756E-04
 6 40-7.57304005E-04-7.39319048E-04 4.41855738E-02 7.24609963E-06 2.36232285E-05
 6 41-5.54146160E-05 2.62193203E-03 7.31567938E-05 2.85820124E-04 3.31135749E-05
 6 42 2.57281651E-03 1.41395592E-04 5.08247965E-04 2.45159157E-04 1.23186651E-02
 6 43 1.21942704E-02 1.22378170E-02-3.98278946E-05-1.19533774E-05-7.97108721E-06
 6 44 2.51016812E-03 2.52321050E-03 2.42204169E-03 8.80885881E-06 4.59057893E-08
 6 45 3.40912419E-05 1.07813038E-06 1.77176715E-05 1.79486255E-05-5.97826832E-06
 6 46 4.32874984E-05 1.07281492E-05 2.10107685E-05 1.04457042E-06 3.23355734E-05
 6 47-1.50236091E-06-7.08914599E-06-2.37350432E-05-1.27041493E-05 1.12441698E-05
 6 48 5.07743708E-06-1.03908908E-04-1.09790195E-04-6.69043799E-06 3.93804340E-05
 6 49 4.70550910E-05-2.24682476E-05-2.38275851E-05-1.36442972E-05-2.77922232E-05
 6 50 4.03705759E-06-8.35364186E-06-3.67139657E-05-4.29116830E-06 8.54878720E-06
 6 51 1.57573001E-06 1.40286846E-04 3.05919082E-05-5.64782888E-05-6.77841240E-06
 6 52-3.09848152E-05-8.53283522E-06-3.38522927E-05-9.63371961E-06 2.69081687E-07
 6 53 5.21972981E-07-8.42309840E-06-3.70201831E-05 7.89549048E-06 5.68494718E-06
 6 54 4.96741220E-07 1.41757622E-04-5.35159154E-05-3.66436489E-05 5.74821637E-07
 6 55-2.01994705E-05-1.99992551E-05-3.38354245E-05 1.61045210E-05-2.00216088E-06
 6 56-1.42528306E-06
 7  1-7.43883870E-06-3.90774979E-05-2.13760874E-06 4.75819053E-07-8.51298231E-09
 7  2 1.09444973E-05 6.23900363E-06-1.97518013E-06-3.72509740E-06-3.56643089E-04
 7  3 3.30090127E-06-3.98442093E-06-2.07887832E-05-8.76566556E-04-2.45615433E-04
 7  4 8.17872093E-05 1.75171823E-04 3.21239803E-05 3.29513336E-05 3.43612082E-05
 7  5 3.24453011E-07 5.52255959E-07 1.04161224E-07-9.13593142E-05-4.63352591E-05
 7  6-5.45865445E-05 1.22518223E-05-2.35134515E-07-1.80224860E-06-2.81516250E-05
 7  7 2.32299160E-06-1.59382247E-06 5.99227635E-06 1.51881732E-06-7.31436988E-06
 7  8-2.55800377E-06-5.29776563E-06 1.73511045E-06-1.00488435E-06 2.95369915E-01
 7  9 1.03420551E+00-1.52515123E-03 6.59427215E-05-1.87720967E-03 4.42919327E-02
 7 10-1.39016874E-04 9.41302415E-06-1.34671128E-04 2.65205794E-03-1.57878140E-04
 7 11 3.23153635E-05-2.64449145E-05 1.89770570E-03-4.01404953E-04 4.91968736E-05
 7 12-2.68949952E-04 1.22806948E-02 1.22404762E-02 1.23768680E-02 3.81597826E-06
 7 13 1.01713082E-04 3.36966945E-06 2.58966231E-03 2.51711816E-03 2.47128176E-03
 7 14-6.66838772E-06 7.19951966E-05-2.56517693E-05 3.24358541E-05-1.27864764E-05
 7 15 9.07634991E-05 7.20352291E-06 6.08218343E-05 1.46063386E-05-9.63440258E-06
 7 16 5.99625074E-05 9.37460044E-06-1.25036754E-05-7.46060707E-07-8.89388495E-06
 7 17-1.48508856E-05 3.59366479E-06 1.61343097E-06-2.95494887E-05-1.95737139E-04
 7 18 4.18977036E-05-1.54471259E-05-3.20055028E-05-1.04856970E-05 1.00148161E-06
 7 19 5.68587848E-06-1.56635639E-07 1.93844595E-06 1.55083598E-06 5.20751579E-06
 7 20 1.78033626E-06-9.01730815E-07-3.30395798E-06-2.55429379E-05-4.34987892E-06
 7 21 1.31876151E-06 2.33195729E-06 2.95990930E-06 4.21014568E-06 9.91830209E-06
 7 22 2.89758541E-07-5.02540655E-08 1.03675811E-06-2.45920002E-05-3.99231142E-05
 7 23-8.66446375E-06 2.20452300E-06 1.12293392E-06-2.48894581E-05 1.16790627E-04
 7 24-4.90183819E-06 1.41360705E-04-1.23460227E-05-4.89236436E-05-8.95660368E-06
 7 25-2.79840936E-06 4.53630668E-05-3.27844272E-06-1.62518680E-06-1.74637546E-05
 7 26-1.75347583E-05-1.60722076E-05-1.06382990E-05-9.43352427E-05-1.67312457E-05
 7 27-9.99726504E-05-5.52572646E-05-1.43024509E-05 2.86439798E-05-7.67717762E-06