 $contrl scftyp=reks runtyp=gradient dfttyp=bhhlyp icharg=0
         maxit=500 mult=1
 $end
 $dft sg1=.true. $end
 $scf
 nconv=6
 npunch=2
 $end
$reks
 rexType=0
 rexTarget=0
wpps=0.5
rexShift=0.0
rexDIIS=no
$end
 $basis gbasis=n31 ngauss=6 ndfunc=1 $end
 $guess guess=moread norb=106 $end
 $system timlim=999999100 mwords=700 $end
 $data
Comment line
C1
Ti  22.0    -0.72625926    -0.05001797     0.92748113
Ti  22.0     1.58246127     0.25371517     0.63216557
O   8.0    -0.13003357     0.17575968     0.62585869
O   8.0    -0.80834423     0.55580690     2.80844728
O   8.0     2.32941033     0.23989623     2.98835402
O   8.0     0.85646966    -1.64884672    -0.51534150
Ti  22.0     0.95501116     0.80962042    -1.36393039
O   8.0    -0.01775306    -0.16979149    -2.08892633
Ti  22.0    -0.64491455    -0.80129287    -0.90225083
O   8.0    -1.80979762    -0.83099610     0.02256180
O   8.0    -0.81310437     1.74697721    -0.54485496
O   8.0     2.32462422     1.21265254    -1.08260748
 $end
 $VEC   
 1  1 9.99312040e-01-3.23220817e-03-1.37630544e-04-2.09078429e-04-2.58320872e-04
 1  2 2.24840676e-02 2.00432029e-03 4.02940465e-04-8.57043150e-04-6.83226842e-04
 1  3 1.80243155e-03-4.12673968e-04-2.06058463e-03 8.26597351e-04-4.22096526e-04
 1  4-1.42267101e-04 1.74754800e-04 1.50551064e-02 1.41591059e-02 1.42527618e-02
 1  5 2.26895420e-04-4.75589434e-04-1.28124206e-04 5.62311257e-03 4.20746388e-03
 1  6 3.44256431e-03 1.91120172e-03 1.18606483e-03 5.90839990e-04 2.18976546e-03
 1  7 3.80368683e-04-8.71990080e-04 2.33138034e-04-5.69306567e-04 8.47579323e-04
 1  8-5.69344620e-04 5.48880732e-04 1.82693364e-04-2.78011722e-04-1.95488649e-05
 1  9-2.62749990e-05 1.63327266e-05-1.02156558e-06 8.15286150e-07-7.09410114e-04
 1 10 2.51927797e-04 3.40894522e-06 4.60807365e-05 3.50261194e-05 1.05212750e-03
 1 11 1.78540391e-05 2.53430426e-04-8.00187852e-04-1.05645264e-04 7.21801667e-05
 1 12 4.91986321e-05-5.88689852e-04-5.13415032e-04-5.07306558e-04-5.73808301e-06
 1 13 2.00639934e-05-2.43421956e-06-8.57699254e-04-2.36576036e-04-2.55177253e-04
 1 14 2.79623892e-05-2.25919718e-04 3.39966950e-05 3.82857593e-04-2.36549870e-05
 1 15-7.77767865e-06 5.19985680e-06 7.01102911e-05 2.19546779e-04-8.82913231e-06
 1 16 1.78617904e-04-2.83068339e-05 2.94774867e-05-2.58976422e-05-2.98311296e-04
 1 17 1.03880386e-03 2.56976555e-04-5.39613883e-04-1.13369071e-02 7.97646026e-03
 1 18 6.66002395e-04-4.22626075e-03-1.21303587e-03 7.46980527e-04 3.57529563e-04
 1 19-4.70417764e-04 1.16496556e-03 1.57196150e-04-6.30790265e-06-5.28292557e-05
 1 20 1.91114610e-05-1.08809274e-05 2.52074814e-06 1.62497593e-04-2.14425813e-04
 1 21 5.86854008e-05 2.37681926e-04-1.69515476e-05-4.45047565e-06-4.05460667e-05
 1 22 3.87794354e-06 7.08452344e-05 6.17911725e-06 2.47116405e-06 5.20586090e-06
 1 23 8.27024196e-06 2.60676140e-06-3.00695658e-06-8.52256039e-05-3.16669368e-05
 1 24-8.71154798e-06 2.22257623e-05-2.42997116e-06-7.93475230e-06 3.44036836e-05
 1 25-1.19634669e-06 1.67581739e-05 2.55045752e-06 6.38083001e-06 5.64868604e-05
 1 26-4.31967599e-05 2.05620419e-05 1.31162168e-05-3.59932357e-06 2.80149346e-04
 1 27-5.13066719e-05-7.45757616e-05-2.97543804e-05 2.97427995e-05 3.82763403e-05
 1 28 7.14176206e-05-2.45216657e-06-6.50439641e-05-1.57000369e-05 3.53267066e-05
 1 29 3.55563349e-06 2.00238349e-06-1.22795858e-05-1.17252595e-04 1.46089244e-05
 1 30 1.99709539e-05-1.24686272e-04 7.41208284e-04 4.33901342e-04 1.98185472e-04
 1 31-9.26629703e-04-1.02207565e-04 4.85558721e-05 1.10911652e-04 4.16435926e-04
 1 32-2.89532653e-04-3.16338262e-04-2.18492592e-04 1.65018327e-05-5.08581320e-05
 1 33-1.88814736e-05-6.53265594e-04-7.45499011e-05-7.47205646e-04-2.77568707e-04
 1 34 3.10943591e-04 7.93628118e-05-1.63775112e-04-5.11427264e-05-1.57462251e-04
 1 35-3.06880468e-05-2.73182877e-05-4.35331683e-05 1.28740850e-05 9.26078687e-05
 1 36 9.02871466e-05-3.05597763e-05-8.45146969e-06-3.77473652e-05-2.91255246e-05
 1 37-7.54211865e-06 3.45375680e-06 3.04455970e-04 3.15997486e-04 3.75403606e-04
 1 38 5.11854370e-06-3.24095784e-05-3.25615797e-05-1.33798357e-05-3.03799424e-05
 1 39 5.84678404e-05 4.75563663e-05 1.64938573e-05 1.09301400e-04-3.46437138e-06
 1 40 2.11249712e-05 2.88836176e-05 1.14159134e-03-3.89603245e-05-1.23917712e-04
 1 41-1.73008730e-04 2.24426325e-03-4.96378412e-05-3.27099901e-04-5.88636855e-04
 1 42 5.11062666e-04 4.87897887e-04 1.84955297e-04-2.09073314e-04 4.94635636e-04
 1 43 4.50462819e-04 5.26946478e-04 3.30492103e-05-2.16594710e-05 1.24116098e-04
 1 44 4.03291634e-04 6.50930011e-04 1.04447383e-03-2.46698338e-04-2.84424343e-04
 1 45-3.11170029e-05-1.03083352e-04 2.18886828e-04 4.61200078e-04 7.90782998e-06
 1 46 3.58442264e-05-1.00241779e-04 2.28494923e-04-4.19721035e-05 2.36458559e-04
 1 47-8.44231167e-05 1.52565431e-04 8.89534402e-04 1.32651625e-04 7.26477861e-05
 1 48 3.95542965e-05-5.16695697e-03-2.05766614e-03-1.55036618e-03-1.42714231e-03
 1 49 2.33005692e-04 4.34331999e-04 3.86621700e-04-3.10288700e-04-2.44912309e-04
 1 50-2.97643414e-04-5.03559827e-05-2.84036442e-04-3.39927938e-05 7.61472827e-05
 1 51-3.40445394e-05 9.81626170e-04 3.01559242e-04-4.26006144e-04 1.13337615e-04
 1 52-2.37811915e-04-3.66249040e-05-1.13847390e-04-5.47487208e-05-6.61804307e-06
 1 53-1.39076344e-04-4.87288546e-05-2.20743676e-04 2.43442314e-05 1.10973166e-05
 1 54-3.27064329e-05 1.36241415e-03-6.46660338e-04-1.25104905e-04-3.32248144e-05
 1 55-4.29299102e-05-2.04381333e-04-1.08728475e-04 2.95975111e-05 4.14264168e-05
 1 56 5.47390444e-06
 2  1-1.09727585e-05 1.85564740e-04 3.97841805e-07-1.12243047e-05-2.72762998e-05
 2  2 1.30013274e-03-6.77558079e-05 2.59795940e-04 5.90424725e-04 5.25978328e-03
 2  3-9.10657675e-04 1.08793429e-03 2.99352317e-03 5.49904326e-03 3.74476634e-04
 2  4-7.71836996e-04-1.68885036e-03 4.47987257e-04 3.90790534e-04 4.87910752e-04
 2  5 2.79799180e-05-5.62867073e-05 6.63085937e-05 5.57522550e-04 8.05426071e-04
 2  6 5.85120769e-04-3.08745499e-05 2.89042611e-04-1.19843757e-04 1.81296287e-04
 2  7-1.20349990e-04-3.79612572e-04-3.43485593e-05-9.66446490e-05 1.07159994e-04
 2  8-1.77977111e-04-2.13312545e-06 1.00783577e-05-4.53339963e-06 2.95548628e-06
 2  9-3.32160985e-05 6.73559314e-06 1.34094681e-06 2.73353290e-06-1.69746660e-04
 2 10-1.09073906e-04 1.33537926e-05-5.38605993e-05-8.58013895e-04-5.12141187e-04
 2 11 7.48559614e-05-2.48427262e-04 8.07022744e-05 1.04757589e-04-1.65205067e-04
 2 12-4.43687478e-05-2.88600839e-05-8.99524958e-06-1.72747264e-06-5.85528252e-06
 2 13-8.96950795e-06 5.56175552e-06-5.01426015e-05-5.87711456e-05-7.35117208e-05
 2 14 1.07271593e-05-3.74359067e-06-5.41452533e-05 8.00365801e-05 1.60841770e-05
 2 15 2.83956397e-05 4.42709795e-06 2.47479668e-05 2.96816566e-05 1.28333713e-06
 2 16 4.42274525e-05 1.86102480e-05 8.16684334e-06 4.55829822e-05 2.13873416e-04
 2 17-4.19427760e-06-4.59432683e-05-1.14787762e-04-1.13753770e-03 8.53282178e-04
 2 18 2.77681145e-04-1.83060195e-04-5.99553633e-05 2.10665120e-04 1.70094897e-04
 2 19-5.15502595e-05 1.15629658e-04 8.22804436e-05 4.41038057e-05 1.62521904e-04
 2 20-9.13688932e-06-2.50628349e-07-1.68719607e-05-8.41189700e-04 1.50662139e-05
 2 21 1.48303809e-05 1.30085622e-04 1.32989393e-04 1.32607477e-04 1.34708147e-04
 2 22 4.76797022e-06 5.60929301e-06 5.89743531e-07 4.49269154e-07-8.96313361e-07
 2 23-7.95996342e-06-3.98840396e-07 4.56973980e-06 7.51017055e-07 2.87811739e-05
 2 24 9.27435365e-07-1.71606513e-05-3.13494374e-06-2.20124029e-07 9.71102616e-06
 2 25 1.92931894e-06-2.63115125e-06 9.45993419e-07 6.65591327e-05 2.56079260e-04
 2 26-8.40644024e-05 3.20865376e-05-8.10055837e-06-1.44436842e-03 2.26462792e-04
 2 27-1.76916148e-04 4.23460352e-05 2.49409519e-04 1.96424861e-04 2.07477338e-04
 2 28-1.84954534e-05-1.25220182e-05 1.70880445e-05-1.79812109e-06 2.90827227e-05
 2 29-1.31506515e-06-6.48706350e-06 2.20541339e-06 5.04613521e-05 1.59930019e-04
 2 30 1.29931504e-04-1.10043575e-04 1.68569300e-03 6.83284716e-04 5.72340007e-04
 2 31-4.97388585e-04 1.69339712e-03-5.66225925e-04-4.13485504e-04 1.87922637e-04
 2 32-4.12211228e-05-1.64865241e-05 1.99395675e-06-1.22163462e-05 4.07273454e-06
 2 33-1.04477314e-05 7.99496676e-04 3.98230659e-04 1.89577187e-04 2.93077686e-04
 2 34 1.31245306e-04 1.41757806e-04 8.24933558e-05-6.38148153e-05-1.34265979e-05
 2 35-3.85148597e-05 1.83389692e-05-1.73585018e-05 2.46765072e-06 4.34942764e-05
 2 36 1.98282874e-05 3.51818492e-05 8.78019559e-05 4.34185103e-04-8.30048539e-05
 2 37-6.65087922e-05 1.29736527e-04-2.19669928e-03 1.72181305e-04 1.67956352e-04
 2 38-8.53734906e-04 3.40179894e-04 2.59222249e-04 1.61781741e-04-4.32640044e-05
 2 39 3.50852883e-05 6.17632927e-05 9.99004029e-01-3.72774920e-03-4.29255030e-04
 2 40-6.22244137e-05 3.61176779e-04 1.19907042e-02 3.73030123e-04 4.63577062e-04
 2 41 2.65534875e-04-7.84735343e-03 6.10383960e-04 2.02881872e-03 2.11485766e-03
 2 42-7.81313384e-03-3.73361537e-04-1.62158655e-03-1.65661249e-03 6.39367618e-03
 2 43 6.38929845e-03 6.39602228e-03-8.25382921e-06-2.04759655e-05 9.17862891e-06
 2 44-5.72215587e-05-4.93165998e-04 4.09353458e-06 7.50498610e-05-5.21863023e-04
 2 45-9.36823970e-05-3.60619218e-04 6.47155068e-06 8.47163535e-05-2.90118208e-05
 2 46 1.16106203e-04-1.15382639e-04-1.40529266e-06-1.53876150e-04 6.03980078e-05
 2 47-4.88338044e-05 6.78754703e-05 4.32694800e-04 1.25925850e-04-2.33651530e-06
 2 48-7.69169318e-05-1.58949564e-03-9.40334479e-04-2.77222682e-06 4.90329261e-04
 2 49-8.05396053e-05 3.32430920e-04 1.83429987e-04-3.13513716e-05 2.30821607e-04
 2 50-4.56650764e-05-5.57170320e-05-1.93128562e-04-1.37589015e-05 3.93763073e-05
 2 51-1.71388489e-05 9.85551359e-04 3.73027072e-05-8.00928598e-05 2.01031001e-04
 2 52-1.92732053e-04-1.80787971e-04-1.73372682e-04 4.60505315e-06 1.62226123e-05
 2 53-4.61077500e-05 1.90328784e-05 7.32826241e-05 3.65143011e-05 1.51457071e-05
 2 54 2.82861409e-06-9.93355066e-04 3.92602827e-04-1.83067524e-05 1.01302271e-04
 2 55 5.42065753e-07 7.64751725e-05 6.94806104e-05 2.05265848e-06-2.04853379e-05
 2 56-1.34438434e-06
 3  1 2.00649037e-06-2.52098018e-06-5.16925480e-06-8.73105900e-07 1.65114542e-06
 3  2-1.82277564e-05 3.43373242e-05 1.59744206e-05-3.08018248e-05 2.82207153e-06
 3  3-2.08691571e-06 1.13177074e-05-2.92614207e-05-1.06794196e-05 4.04048101e-05
 3  4 3.48459333e-05 3.83617692e-05 5.70832054e-06 2.12964580e-05 2.93870962e-05
 3  5 1.35045855e-05-1.88160121e-05-9.69551651e-06-3.44185828e-05 1.02882718e-05
 3  6 3.43342201e-05 4.96861847e-06-3.21438379e-05-2.09324016e-05-4.97116384e-05
 3  7 7.93984474e-06-2.02309301e-05 6.41987403e-06-1.75751744e-05-2.90538604e-07
 3  8-1.13731081e-05 1.59924437e-05 1.43989209e-05-1.59780819e-05 9.96202164e-01
 3  9-1.31807299e-02-6.61519645e-04-4.80986112e-04 5.99446354e-04 2.20774925e-02
 3 10 3.51926242e-04 2.59699220e-04-3.34003198e-04-3.66559169e-04-1.01967252e-05
 3 11 1.63364445e-05-4.31500794e-05-6.65649697e-04 1.20679085e-04-4.09129285e-05
 3 12 1.56084441e-04 8.68886438e-03 8.68713545e-03 8.69654470e-03 9.75239725e-07
 3 13 3.11517667e-06-1.98035906e-06 3.78937372e-04 3.34763599e-04 2.75601486e-04
 3 14-4.76947629e-06-1.23395490e-05 2.32407885e-05-1.88143038e-04-1.20777388e-04
 3 15 1.78190988e-04-5.28657650e-05 7.13637408e-05-6.66469604e-05 8.03009435e-05
 3 16-6.61325339e-05-6.99461438e-05 4.69888919e-07 1.40531225e-06 6.58109075e-05
 3 17 5.50445827e-05-7.30372685e-06 1.02490866e-05-1.61684985e-04 2.86920278e-05
 3 18-1.93076635e-05 7.30319786e-05-8.82635388e-05 3.93631163e-05 4.91425098e-05
 3 19 6.64147833e-06-1.52376733e-05-9.72316589e-06 1.52953269e-07-1.73172673e-08
 3 20 5.78018700e-07-4.46018240e-08 4.76050787e-07 3.47139910e-07 8.36581294e-07
 3 21 2.81259760e-06 3.60230054e-06 1.73996025e-06 4.83196873e-07-1.29912550e-06
 3 22 2.61132341e-07-7.48533048e-08-2.74276386e-06-2.81669576e-06-2.34564030e-05
 3 23 7.39926312e-06 4.70493685e-07 1.38364168e-05 4.30971308e-05-1.84018905e-05
 3 24-1.59003709e-06-3.05099047e-05-1.62510722e-05-2.29792344e-05 1.18839706e-05
 3 25 9.43314069e-07 1.87824295e-05 2.19429139e-06 2.25995085e-06-1.08165097e-05
 3 26-4.48037652e-07-5.63991951e-06-3.82265920e-06-3.72393106e-05-1.15695191e-07
 3 27 5.91995307e-06 1.04433947e-05-1.01689601e-07 2.42407358e-05 3.99040274e-06
 3 28 1.07862506e-05 7.25611907e-06 2.01421393e-05-1.42547252e-07 2.59391521e-06
 3 29 9.73042535e-07-1.39761690e-06 3.94271188e-06 5.05160677e-05-6.30573035e-06
 3 30 5.85350290e-06-1.47843383e-05-2.19057163e-05 7.62731540e-07-1.02195631e-05
 3 31 3.85479017e-05 2.22931864e-04 9.07328212e-05 1.37205504e-05 6.11668142e-05
 3 32 1.19301291e-05 1.04408681e-05 1.02961765e-05 5.55689625e-07 2.73285728e-06
 3 33 1.32378675e-06-3.40338336e-05-3.27905861e-05 2.68294197e-05-1.10298593e-05
 3 34 1.87969185e-06-4.24001971e-05-5.45447171e-06 8.29936363e-06 3.09806493e-05
 3 35 2.95671859e-06-4.01779796e-06 1.35552281e-06 2.60938861e-06 1.39552503e-05
 3 36-2.71206531e-05-7.92296086e-06 1.89474742e-06 7.87414393e-06 2.58661780e-06
 3 37 6.27625045e-08 3.62025046e-06-1.03784921e-05 3.25896031e-06 8.14920136e-06
 3 38-6.01379889e-06 8.43783550e-06 5.14974701e-06 3.64918555e-06-9.07833330e-07
 3 39-7.88749649e-07 2.99206969e-06-5.05909589e-07 2.47836681e-07-9.93185193e-07
 3 40-4.01652766e-07-4.30342878e-07-1.62577751e-05 7.10444561e-06 3.47764228e-06
 3 41 1.56115303e-06 5.07792142e-05 1.91258587e-05 1.03725521e-05 4.05029978e-07
 3 42 3.55140412e-04 5.47393830e-05 5.19123534e-05 5.58575306e-05-1.50848944e-05
 3 43-1.35054831e-05-1.23076299e-05-1.53068787e-06-1.43590148e-06-1.06092683e-06
 3 44 3.15731437e-06 1.09162210e-05 7.20461773e-06 2.87884271e-06-9.43305044e-07
 3 45 4.88085813e-06-7.21547673e-06 9.40734401e-08-8.92927981e-07-4.59467081e-06
 3 46-4.40788978e-06 3.98113523e-07 5.54058083e-07-3.40088582e-06 9.62097707e-07
 3 47-1.90825705e-06-1.17432247e-07 1.34491967e-06 3.51574504e-07 1.58714969e-06
 3 48 1.66527574e-07 1.47656692e-05-1.87700374e-06-6.46390970e-07 3.11263639e-06
 3 49-1.31540596e-06-6.97789392e-07-2.23324821e-06-2.68642715e-06-1.65120814e-06
 3 50-1.31966051e-06 1.98767404e-06 5.77980641e-06 2.16656836e-06-2.01919470e-06
 3 51 2.20827974e-06-2.86600277e-05 8.38755872e-08 2.19738792e-06-7.79285922e-06
 3 52 4.83842422e-06 9.73165822e-06 8.15168642e-06-1.07063850e-06-3.47110589e-06
 3 53-3.93477180e-07 1.59413157e-06-1.54954376e-05-6.58749493e-07-1.60223958e-06
 3 54 3.13111626e-06-1.28175142e-05-3.18537019e-05-2.00034283e-05 2.92668037e-05
 3 55 3.30819164e-07 1.22239711e-05 4.34100336e-05 8.43493577e-06-1.64036400e-05
 3 56-3.40862477e-05
 4  1 2.02707384e-06 1.60163328e-06 4.23922325e-07-4.72309809e-07 1.95167110e-06
 4  2 7.00092345e-05 2.23710357e-06 2.45682770e-06-2.51435613e-05-1.36527577e-05
 4  3 1.74222828e-05-1.53366602e-05-7.12195772e-05 3.88197109e-04 9.68928015e-05
 4  4-8.90424579e-06-6.77880987e-05 4.57414632e-05 6.06298136e-05 5.97859953e-05
 4  5 1.61165612e-06-1.03162878e-05-4.47612368e-06 1.90669388e-05 3.21727126e-05
 4  6 2.69538233e-05 1.23212359e-05 3.31577321e-07 1.47586738e-05-5.53852761e-06
 4  7 9.98729179e-06 9.69003495e-06 3.28730670e-06-1.13400448e-05 1.37000132e-05
 4  8-7.02489559e-07 7.23368585e-06-4.98213684e-06-2.12551247e-06 1.83994802e-07
 4  9-1.92521454e-07-1.26936755e-06 3.27216107e-07-1.26942600e-06 7.42694019e-05
 4 10 2.33656931e-06-3.12371297e-06-2.11039366e-06-1.87433681e-04-3.11556381e-05
 4 11 1.17275762e-06-6.18565027e-05-1.24061879e-04 8.92095103e-05 3.60815830e-05
 4 12-4.38167887e-05 3.82349737e-05 4.35693540e-05 4.84114007e-05-1.26011588e-06
 4 13 1.68189427e-06-4.15207890e-06-4.35395126e-05-5.24875078e-05-2.95562621e-05
 4 14-1.69905857e-05 4.20269610e-05 1.11180038e-05 1.63536062e-05-7.32441838e-06
 4 15-6.25227467e-06 3.49156685e-06 4.97891675e-08-3.47596471e-07 7.65362543e-06
 4 16-2.98167951e-05 1.92438284e-06 1.51898016e-05-3.24394351e-06-3.75832407e-05
 4 17-6.67725507e-06-2.87478863e-06 2.03375087e-05 3.73833658e-05 1.06780093e-04
 4 18 4.50769071e-06-7.59994551e-05-2.17748117e-05-2.82497258e-05 3.46731692e-05
 4 19 1.33746781e-05-2.40093384e-05-2.87072575e-05-6.46094114e-07-2.31658065e-06
 4 20 3.40945492e-08 1.26850489e-06 9.22669869e-07 1.21948393e-05-8.88452651e-07
 4 21-4.05950892e-06-2.04818209e-07-1.38956894e-06-1.92795122e-06-3.22062524e-06
 4 22-1.44452968e-07 1.29344998e-07 7.27257957e-07-1.24517081e-06-2.90178033e-06
 4 23 1.89078669e-06 9.93434782e-07-1.09199516e-07 1.63412925e-05-3.79930097e-06
 4 24-2.88282045e-06 4.06369254e-06-3.98771381e-06-4.22716733e-06-5.60950248e-06
 4 25 1.35967384e-07 9.30254152e-07 1.61120583e-07-3.19508803e-06-1.22941538e-05
 4 26-1.00146965e-06-5.75394566e-06 7.49385147e-07 6.17939705e-05-2.51204010e-05
 4 27 2.13579621e-05-1.63563005e-05-9.92797511e-07-1.27237658e-05-1.52299812e-05
 4 28-9.98314999e-07 5.77778963e-06-3.04851430e-06 9.96174999e-01-1.31930086e-02
 4 29-1.03673304e-03-3.63717740e-04-1.42237282e-04 2.21534766e-02 5.46342139e-04
 4 30 2.36264293e-04 5.38601854e-05 1.24678741e-04 6.82194346e-05 1.83727823e-04
 4 31-1.61497834e-04-2.47769813e-04 1.07316665e-05-2.10697578e-05-1.04918299e-05
 4 32 8.54899957e-03 8.51124853e-03 8.50576841e-03 2.75472578e-05 4.95266531e-07
 4 33 1.26761233e-05-3.66698037e-04 1.20648947e-04 1.50088174e-04-1.96233714e-04
 4 34-7.97568604e-05-6.88844547e-05-4.32672049e-04-1.12067789e-04-4.94932665e-05
 4 35-8.63897665e-05-5.08300090e-05-2.02487329e-04-3.93587932e-05-1.98979705e-04
 4 36-5.35869245e-05-9.64150726e-06-3.44344890e-05-1.04652833e-04-1.66112257e-05
 4 37-1.34264064e-05-2.95576292e-05 9.63569141e-04 5.53622620e-05 1.43938920e-04
 4 38 2.59129547e-04-1.86504881e-04-1.50128743e-04-1.26044215e-04-6.48287720e-05
 4 39-7.09466521e-05-4.94444808e-05-3.42493143e-06-3.83892391e-06 1.77138283e-06
 4 40 2.76207034e-06 7.12909123e-07-1.30681124e-04 3.10714716e-06-2.06457732e-05
 4 41-6.71426139e-06 9.66776109e-05 7.16841870e-05-1.63264993e-05-4.87404516e-05
 4 42-4.38474742e-05 1.14024932e-05 1.12734203e-05-4.30949874e-05-9.21608068e-05
 4 43-1.01216288e-04-1.00945861e-04-1.57007821e-05 4.56419321e-07 2.08048838e-06
 4 44-7.35050236e-05-2.01707105e-06-7.43182499e-05 5.87276201e-05 5.43804864e-05
 4 45 3.60589207e-05-1.28632706e-05-3.08800789e-06 1.84214684e-05 1.72527578e-05
 4 46 2.12538991e-06 2.65787524e-05 1.57641760e-05-1.59183065e-05-2.67331512e-05
 4 47-1.17500621e-06-5.85510961e-06-2.58467316e-05-2.33536583e-06-4.24576300e-07
 4 48 1.82895202e-06 1.41316586e-04 4.68804951e-05-5.87146969e-07-4.80635242e-05
 4 49-1.25625998e-05-2.23727754e-05-1.49084903e-05 1.80359498e-06-8.21360229e-06
 4 50-6.16297535e-06-1.14308793e-05-6.64033045e-05 6.84701408e-06-4.62126196e-06
 4 51-3.53284310e-06 2.51634225e-04 1.33675884e-04-9.36320119e-05-7.44548367e-05
 4 52 9.79846013e-06-1.66432311e-05-2.71331026e-05-4.75681972e-05-4.03933684e-05
 4 53 2.73553325e-05-2.68400916e-06-1.06688352e-04 3.44243645e-05 1.91099337e-05
 4 54-1.71985837e-06 1.09496923e-03-5.76860665e-04-1.26612128e-04-8.56699127e-05
 4 55-1.88205068e-05-8.09840588e-05-6.31422051e-05-7.20622973e-06 1.08340899e-05
 4 56-2.85606941e-06
 5  1 2.96535592e-01 1.04618522e+00 4.36689787e-02 1.07465653e-01 1.34021447e-01
 5  2-4.08138327e-01 1.94643765e-02-1.21574822e-02-3.53154817e-02-5.83470364e-03
 5  3 1.76250080e-02-6.66354680e-03-2.56865504e-02 2.33843280e-02-1.51822812e-03
 5  4-2.24435010e-03-1.12181371e-03-8.11232262e-02-9.38165283e-02-9.39517957e-02
 5  5 2.48161377e-03-7.53562148e-03-3.99418417e-03 4.48208000e-02 3.58432129e-02
 5  6 3.05161134e-02 1.87085681e-02 1.40051627e-02 7.99893648e-03 2.68385541e-02
 5  7 1.33074253e-02 7.72480241e-04 6.22174726e-03 1.43584718e-03 1.32391341e-02
 5  8-1.52549890e-03 8.87269657e-03 6.55021901e-03-1.62208578e-03-2.19984658e-04
 5  9-4.38513376e-04 4.89295371e-05-4.50260037e-06 7.06968170e-07-8.25168728e-03
 5 10 2.72333114e-03-9.33934153e-05 5.61172591e-04-4.01186685e-03 7.41922418e-03
 5 11-2.22875613e-04 2.88961096e-03-9.01306688e-03 4.11504670e-04 1.68352489e-03
 5 12-1.51732081e-03-6.79022392e-03-5.63144411e-03-5.72417769e-03 2.13810840e-05
 5 13 1.05104295e-04-4.07635364e-05-7.52330567e-03-4.19322014e-03-3.65421057e-03
 5 14 1.30749799e-04-2.26572826e-03 3.92385266e-04 2.67086565e-03-3.68812722e-04
 5 15-9.06335525e-05 2.27610612e-04 6.60337045e-04 2.93321217e-03-9.33274411e-05
 5 16 2.35305233e-03-3.45774094e-04 3.83187804e-04 1.35172641e-03 9.68124532e-04
 5 17 1.22364164e-02 2.57924787e-03-6.26597536e-03-1.31314019e-01 9.58967992e-02
 5 18 9.16175495e-03-5.10812251e-02-2.13352811e-02 9.92104630e-03 4.41904283e-03
 5 19-7.35448627e-03 1.66443965e-02 2.22673716e-03-1.00295174e-04 2.81573296e-04
 5 20 1.85888190e-04-1.34739901e-04 8.07548995e-05 1.71853930e-03-2.62443458e-03
 5 21 1.30371495e-03 4.68107998e-03 2.41289656e-04 1.57999567e-04-2.76266601e-03
 5 22 2.40277092e-04 1.29543854e-03-7.23383052e-04 5.43876673e-05 1.69672957e-04
 5 23 1.72931575e-06 1.94403619e-05-8.21652942e-05-1.37915244e-03 4.54781600e-05
 5 24-6.08991582e-05 4.43860555e-04 4.93123470e-05 1.69258303e-05 4.52223486e-04
 5 25-2.00058519e-05 1.34561086e-04 1.12965075e-05-6.39937209e-05-8.39507883e-05
 5 26-4.40405634e-04 2.39686807e-04 2.03761876e-04 3.28287663e-03 2.33340926e-03
 5 27-1.38282054e-04-9.89162683e-04-6.12415853e-04-3.93393140e-05 1.73457434e-05
 5 28 6.95231681e-04-1.87882851e-04-6.64419613e-04-1.72386913e-04 3.21531573e-04
 5 29 3.79796581e-05 3.50577990e-05-1.24323256e-04-1.83972789e-03 1.80203904e-04
 5 30 1.50169086e-04-1.51903979e-03 6.83354946e-03 4.41559779e-03 1.75689609e-03
 5 31-1.09405121e-02-7.51509545e-03 6.04173572e-04 1.62010379e-03 3.05192017e-03
 5 32-3.37450721e-03-3.63632063e-03-2.60851349e-03 1.40249365e-04-4.86101473e-04
 5 33-1.48609160e-04-6.61294998e-03-1.06009619e-03-9.01517754e-03-3.16909535e-03
 5 34 2.91676200e-03 6.84759927e-04-1.48835314e-03-3.08093595e-04-1.82045231e-03
 5 35-2.04873973e-04-1.01290082e-04-3.90036130e-04 1.67874002e-04 9.79834157e-04
 5 36 1.11407455e-03-3.86000105e-04-3.13656072e-04-1.35707894e-03-2.07035717e-04
 5 37-6.00309672e-05-2.59481300e-04 7.70246474e-03 3.67635876e-03 4.45761424e-03
 5 38 1.28437113e-03-1.08897504e-03-1.07897171e-03-7.29503796e-04-3.41656781e-04
 5 39 6.94463730e-04 6.96901181e-04-8.28308054e-05 1.01512866e-03-1.31487220e-04
 5 40 8.24646989e-04 1.20566017e-03 7.61787674e-03-1.05346049e-03-2.62412524e-03
 5 41-3.55424437e-03 3.47524387e-02-4.72133645e-03-7.47629704e-03-1.03735826e-02
 5 42-2.39196030e-04 6.63570659e-03 1.96978704e-03-3.55981487e-03 2.42513759e-03
 5 43 1.55958351e-03 1.60834972e-03 7.26015245e-04 2.70310933e-04 1.04000634e-03
 5 44 4.58049501e-03 7.49709627e-03 1.18219697e-02-3.00411434e-03-3.52454608e-03
 5 45-8.22990224e-04-1.02968583e-03 2.07010588e-03 5.11290104e-03-3.01802931e-04
 5 46-1.85159254e-06-8.98142833e-04 2.40874466e-03-2.17026512e-04 3.27891473e-03
 5 47-9.74888068e-04 1.64128048e-03 7.05104656e-03 1.16424387e-03 7.61479372e-04
 5 48 5.57051913e-04-5.48075758e-02-1.97384789e-02-1.44988910e-02-1.29743197e-02
 5 49 4.37001464e-03 5.62749218e-03 5.44397421e-03-6.88839794e-04-2.70036063e-04
 5 50-7.29936066e-04-4.15063185e-04-2.28045277e-03-3.17847697e-04 3.86314659e-04
 5 51-1.24613457e-04 9.11821241e-03 2.97386232e-03-3.92570108e-03 9.63849332e-04
 5 52-1.97766033e-03-1.91943036e-04-6.38595883e-04-5.17016355e-04 5.75400775e-05
 5 53-9.88208565e-04-5.40147581e-04-2.55743991e-03 3.02077162e-04 1.14297992e-04
 5 54-3.24686421e-04 1.48498507e-02-6.86391141e-03-1.20671775e-03 2.42017347e-04
 5 55-5.55696680e-04-2.24067983e-03-1.13894304e-03 2.88290400e-04 2.42374297e-04
 5 56-1.39590550e-05
 6  1-4.07080012e-02-1.43999866e-01 7.54997682e-01 1.56600188e-01 6.99745021e-01
 6  2 2.58717359e-02-1.48608804e-01-3.59361261e-02-1.29854104e-01-6.57284030e-02
 6  3 3.32064300e-03-1.27214926e-02-5.18449306e-02-3.61796478e-02 1.86279875e-03
 6  4 4.82811378e-03 2.06922181e-02-1.36393816e-02-6.49021257e-03-8.46213641e-03
 6  5-4.73969737e-03 1.25247030e-03-6.53276830e-04-1.43755177e-02-2.49795635e-02
 6  6-2.86226545e-02-4.89365550e-03-1.09770903e-02-8.94476288e-03 5.91248132e-02
 6  7 1.33454707e-02 6.36444582e-02 9.63790759e-03 2.85905687e-02 2.49631003e-02
 6  8 3.07580922e-02 2.59434381e-02 8.16809614e-03 3.31065497e-03 6.19821787e-05
 6  9-6.28486402e-05 7.46993116e-05-2.62366721e-05-1.25154203e-05 2.06668779e-04
 6 10-2.13540884e-03-9.68610468e-05 5.61179575e-04-2.91404816e-03-6.96294729e-03
 6 11-1.13730218e-03 3.47109417e-03 1.14485581e-02 4.58380639e-04 5.92910787e-04
 6 12-8.21975221e-03 6.49004880e-04 1.18670366e-03 8.70324154e-04-1.41176992e-04
 6 13 5.19905549e-04-1.46881863e-04 3.13330771e-03-1.22843663e-03-1.44891267e-04
 6 14 8.70747164e-04-1.55238372e-03 7.10019321e-04 1.13751662e-04 2.88814550e-04
 6 15-9.59410769e-04-7.74025218e-04 7.69894270e-04-6.36193083e-04-5.79545244e-04
 6 16-8.19815121e-04 5.62119413e-05-1.84871045e-04-2.54185771e-03-6.98169135e-03
 6 17-9.07084114e-03-2.93250557e-03 1.71893930e-03 3.48118312e-02-3.83928876e-02
 6 18-1.06263112e-03 1.18346238e-02 1.60349973e-02-8.77119004e-03-5.44989371e-03
 6 19 6.05187449e-03-1.12026277e-02-2.21326126e-03-1.37585954e-03-4.73539041e-03
 6 20-1.36714778e-04-1.36399184e-04-2.08677091e-04 2.74738388e-02 3.12089840e-03
 6 21-1.53552530e-03-8.06023882e-03-3.73440106e-03-3.88679515e-03-3.51166773e-03
 6 22-3.48197062e-04-1.25147546e-03-3.84608041e-04 6.69752581e-05 2.45432438e-04
 6 23-2.90039379e-04-4.39822349e-06-8.97038788e-05-1.11279985e-03 1.06891485e-03
 6 24 3.39278582e-05 3.85582171e-04 1.33759948e-04 2.17851480e-04 2.78728531e-04
 6 25-5.88332005e-06-1.88281647e-04 1.52570886e-05-5.96342246e-04-2.43970078e-03
 6 26 3.19204730e-04-1.58408995e-04 2.36989454e-04 1.29240173e-02-2.99068733e-03
 6 27 1.52718184e-03-1.65904400e-03-1.62103130e-03-1.36980552e-03-2.19442336e-03
 6 28-1.41224351e-04 7.31079648e-05-7.94140274e-05 1.61515008e-05-6.85916473e-05
 6 29-6.69295404e-06 1.19047650e-06 8.25546504e-05 7.13780978e-04-6.22317721e-04
 6 30-1.11803853e-03-2.22011518e-05-6.44583624e-03-3.03136888e-03-6.15214192e-03
 6 31 1.16437762e-03-4.64851516e-03-3.68896951e-03 1.52611355e-03-2.27175097e-03
 6 32 7.26800435e-04 3.29125735e-04 6.05323834e-04-7.30397102e-05-1.38077671e-04
 6 33 6.22566313e-05-3.39066277e-03-2.73131374e-04 2.05743089e-04-4.98995767e-04
 6 34-6.42957753e-04-1.52685675e-03-2.27644350e-04 2.14713849e-04 1.13766199e-03
 6 35 1.56870864e-04 1.30711172e-04-1.37148901e-04 3.27827508e-04-2.19847650e-04
 6 36-3.38182641e-04-8.26741262e-06-5.34937664e-04-2.45976857e-03 3.12738623e-04
 6 37-7.67796476e-05-3.43187700e-04 1.44200129e-02-1.79495549e-03-5.56319098e-05
 6 38 4.60986085e-03-1.58723188e-03-1.55898036e-03-1.27215359e-03-1.54318545e-04
 6 39-2.42073465e-04 1.10583069e-04-2.19381970e-03-4.01345279e-03-6.72823768e-04
 6 40 1.27807913e-03 3.06412431e-03-4.12206123e-03-1.06182396e-03-5.64604376e-03
 6 41-7.43121128e-03 6.36712158e-02-7.30894140e-03-1.95865876e-02-2.17524992e-02
 6 42 2.93515730e-02-5.67343189e-03 4.28439675e-03 8.90526317e-03-1.15807876e-02
 6 43-1.15822465e-02-1.15959124e-02 7.20379901e-05 7.41874840e-05-6.78360832e-04
 6 44-1.96775998e-03-1.96487014e-04 1.06519478e-03 2.40656628e-04 2.14358743e-03
 6 45 4.55909710e-03 1.58871883e-03-3.28134071e-04 3.13811535e-03 4.29422356e-04
 6 46-2.99359156e-04 5.91901441e-04 1.61786197e-03-7.69416667e-05 3.09889449e-03
 6 47-1.41052963e-04-9.03154243e-05-3.66441659e-03 1.89965897e-03 3.07889157e-03
 6 48 2.97788287e-03 1.29026369e-02 1.86027918e-02 7.21544209e-03 4.75325060e-03
 6 49 5.83053782e-03 3.05039438e-03 1.88437645e-03 7.35416313e-03 5.33315064e-03
 6 50 5.76219547e-03 6.33807477e-04 3.00960414e-03-3.60303469e-04-2.77850861e-04
 6 51 3.48445326e-04-1.40618416e-02 1.56286265e-03 3.93549437e-03-4.77978218e-03
 6 52 2.14015603e-03 1.10699805e-03 1.56876190e-03-4.42723764e-04-4.95032644e-05
 6 53 1.27997622e-03-1.43056411e-04-4.66716590e-04-1.33395414e-04-1.99972641e-04
 6 54-5.56438148e-05 5.39652223e-03-1.39976389e-03 4.89073576e-04-3.13644063e-04
 6 55-2.67137460e-04-5.34626941e-04-5.53282481e-04 2.62998518e-05 7.64590046e-05
 6 56 1.78811452e-04
 7  1 2.67989766e-02 1.03975128e-01 6.93632491e-01-4.79997714e-01-6.19475852e-01
 7  2-5.87599376e-02-1.44155957e-01 8.58941912e-02 1.31681604e-01 1.26544381e-01
 7  3-2.79325185e-02 2.31174097e-02 7.03843562e-02 7.65897533e-02 1.48035747e-02
 7  4-1.04658402e-02-2.50600669e-02-4.82232037e-02-3.86669606e-02-3.82600685e-02
 7  5-3.38763903e-03 2.00216398e-03 3.40108916e-03 1.83978613e-02 1.40713450e-02
 7  6 2.25132265e-02-3.79817873e-03-3.80281094e-03 2.80900311e-03 5.78041974e-02
 7  7-3.93083456e-02-5.72127422e-02-1.92461395e-02-2.75672233e-02 2.35114687e-02
 7  8-2.56130010e-02 2.61397121e-02-1.90187461e-02 7.15774481e-05 1.70538543e-04
 7  9-8.28875018e-04 2.79942476e-04-1.85143385e-05 9.01100109e-05-2.68681839e-03
 7 10-3.85217159e-03-1.83699328e-06-9.41614860e-04-2.68075672e-02-1.31944635e-02
 7 11-1.06704139e-03-3.17326406e-03-3.26597552e-02 1.00376085e-02-6.03399768e-04
 7 12 4.57203779e-03 1.21899165e-03 1.62657541e-03 1.77318212e-03-5.57027050e-04
 7 13 3.68545974e-04 1.13323318e-04-1.98623326e-03-2.01288807e-03-2.28447541e-03
 7 14 3.13907148e-03-2.02407964e-03-9.14374766e-04 3.29306338e-03 9.25991608e-04
 7 15 1.43984881e-04-1.41113616e-03 1.34602659e-03-6.22144283e-04 3.90478233e-06
 7 16-7.27087774e-05 5.22478832e-04-1.23540233e-04-8.15265595e-04 2.29783551e-03
 7 17-1.24237060e-02-1.06209267e-03 5.39906032e-03-1.54224442e-02-1.49800159e-03
 7 18 1.17120223e-02 1.14075719e-02 2.14411319e-02-2.56241491e-03 2.65619328e-04
 7 19 4.82963145e-03-1.25922080e-02-2.57198198e-03 1.48057230e-03 4.70487403e-03
 7 20-5.75956457e-04 1.67628049e-04 2.43042527e-04-2.76820917e-02 1.79719052e-03
 7 21 1.36459034e-03 7.36933656e-03 4.17371798e-03 4.33561916e-03 3.78411539e-03
 7 22-2.13322154e-04-7.33918917e-04-2.16824653e-05 3.20710174e-05 5.91940157e-05
 7 23-2.74511919e-04-8.98620009e-06 1.36121969e-04-5.40034151e-04 1.03536086e-03
 7 24 6.02394399e-05-3.00593624e-04-9.16716909e-05 1.06899718e-05 3.94387358e-04
 7 25-3.80522654e-07-1.12258990e-04 1.89674345e-05 7.92391955e-04 3.37275535e-03
 7 26 4.83157215e-04-6.77540309e-04-3.77894704e-04-2.27409054e-02 4.27590999e-04