 $contrl scftyp=reks runtyp=gradient dfttyp=bhhlyp icharg=0
         maxit=200 mult=1
 $end
 $dft sg1=.true. $end
 $scf
 nconv=6
 npunch=2
 $end
$reks
   rexType=0 rexTarget=0 wpps=0.5 rexShift=0.4 rexDIIS=no
$end
 $basis gbasis=n31 ngauss=6 ndfunc=1 $end
 $guess guess=moread norb=60 $end
 $system timlim=999999100 mwords=700 $end
 $data
Comment line
C1
Ti  22.0    -0.94423272     0.49932019     0.14134716
Ti  22.0     1.47397015    -0.08254688    -0.00052800
O   8.0     0.34153277     0.20963355     0.08659478
O   8.0    -1.78053825     0.99802488     2.61560130
O   8.0     2.59848354     0.00196281     1.85234255
O   8.0     0.79026917    -1.45329720    -0.13403992
Ti  22.0     0.62050930     1.33799709    -0.47836903
O   8.0     0.01829727     0.11013312    -1.33644863
Ti  22.0    -0.05913404    -1.43528754    -0.14248274
O   8.0    -1.09967773    -1.41411403    -0.14898144
O   8.0     0.20518597     1.50850963    -0.48756405
O   8.0     0.93310457     1.21314739    -0.46051498
 $end
 $VEC   
 1  1-1.49056812e-05-1.12125865e-04 1.65233170e-05 9.71151980e-07-6.57380237e-06
 1  2-8.67341954e-04-6.07960370e-05 1.43872531e-04-3.39616440e-05-2.95031571e-03
 1  3 1.19866178e-03 9.59697982e-04-5.93979482e-04-5.20430744e-03-1.56166975e-03
 1  4-2.41868669e-04 4.11450059e-04-4.99809303e-04-5.20668976e-04-4.57848498e-04
 1  5 6.88133905e-05-2.12011147e-05 2.36531569e-05-1.17082755e-04-4.81098700e-04
 1  6-5.12756644e-04 2.50678266e-04-2.11571043e-04-1.44605068e-04-2.58953739e-05
 1  7-1.61302967e-04 1.20553398e-04 3.51353318e-04-2.14369118e-04-2.01675716e-04
 1  8 3.66181201e-05-1.71931591e-04-8.13714835e-05-1.19173426e-04 4.47857286e-05
 1  9 6.17417193e-05-5.59659428e-06-2.40788239e-05 9.60520796e-06 1.91670002e-03
 1 10 2.39093691e-04 5.46709860e-04-2.05997202e-04-3.31163450e-03 2.10902613e-05
 1 11 2.98350561e-03-1.13639174e-03-3.85743964e-03-2.45702737e-04-2.05564191e-03
 1 12 7.31396708e-04 1.17078358e-03 1.59194887e-03 1.23995883e-03-3.18352560e-04
 1 13 1.31419552e-04-1.41890251e-04 2.89516797e-04 1.43508843e-03-1.63888255e-05
 1 14 1.05850144e-04-1.96084794e-04-7.71098175e-04 4.10023492e-04 3.97403246e-04
 1 15 2.04717940e-04 8.04744233e-05 1.09387800e-05-5.50231977e-04-4.05987112e-04
 1 16 1.32068309e-04-1.12452183e-04 3.43833607e-04-6.41046301e-05-5.90277530e-04
 1 17-7.51910366e-06-7.01758872e-07 5.87959121e-05 2.43929180e-03-1.21627396e-03
 1 18 2.72181924e-04-9.37947622e-04 1.52198760e-04-6.31677452e-04-2.90939473e-04
 1 19-3.01140404e-04 5.23827135e-05 1.49662984e-04-4.91452173e-06-1.52795548e-05
 1 20 1.00832638e-06 1.78148923e-05-1.46157569e-06 6.96121070e-05-1.99760230e-05
 1 21-6.16930388e-05 1.70085923e-05-1.66228887e-05-1.65615874e-05-1.82264639e-05
 1 22-7.26555054e-07 1.42163930e-06 1.25225612e-05-1.20550334e-05-8.55986916e-05
 1 23 4.05355814e-05 7.65297817e-06 1.07731320e-05 2.34199515e-04-2.08416628e-04
 1 24-3.21724900e-05-1.02254594e-04-7.35339965e-06-5.19980901e-05-1.79743309e-05
 1 25-3.94712860e-05 8.06876948e-05-3.79929983e-05-2.36343240e-05-6.79413539e-05
 1 26-2.56335247e-05-3.40731231e-05-1.55993814e-05 5.74160072e-04-2.31233534e-04
 1 27-1.41836073e-04-4.68754884e-04-1.54024320e-04-1.31213308e-04-1.07506872e-04
 1 28-2.98849794e-05 1.06489892e-05-1.42619082e-04 1.00035434e+00 1.71774929e-03
 1 29 1.50317362e-03-7.22968025e-04 2.74949993e-04 7.43072763e-02-4.41770788e-03
 1 30 3.66836351e-03-9.77134395e-04 9.63896212e-03-1.79510761e-03 2.85182135e-03
 1 31-1.07864400e-03 1.06667932e-02 6.96115954e-04-2.15419367e-03 9.15784389e-04
 1 32 4.59719181e-02 4.74074602e-02 4.73823232e-02 8.79264606e-04-1.92342974e-04
 1 33-7.06372093e-05 3.35193365e-02 1.15741631e-02 3.87298142e-03-1.82532901e-02
 1 34 3.53162866e-03-1.64027751e-03 4.62541526e-03-4.19888935e-03 5.63457034e-04
 1 35 1.89937895e-03-1.54268130e-04 4.59056171e-03 3.35390400e-04 5.27833049e-03
 1 36-1.84931291e-03 1.36096236e-04 4.44810521e-05 3.49003706e-04 2.72439151e-05
 1 37 2.36453948e-04 9.83877305e-05-1.58485422e-03-2.18672969e-04 2.83414925e-05
 1 38-7.06118126e-04-3.31055470e-05 4.82567422e-04 7.27697062e-05 8.47644476e-05
 1 39-5.41689766e-05 1.89203291e-04-3.68571698e-06-4.60307459e-05-2.57814902e-06
 1 40-3.13045112e-06 9.76183362e-08-3.24375522e-04 9.85404121e-05 7.41139464e-05
 1 41 8.15786122e-05-1.74473228e-03 4.79680953e-04 4.66155019e-04 3.27612940e-04
 1 42-1.23482972e-03-5.62087649e-04-1.38989111e-04-9.44106501e-05-1.41304970e-04
 1 43-1.76339314e-04-1.53069781e-04-1.05507059e-05-8.49527231e-07 1.38353173e-05
 1 44-6.34513018e-04-4.48339513e-04-4.06068972e-04 6.57382725e-05 1.60003617e-04
 1 45-2.00521602e-05-1.28880079e-04-7.79660553e-05 4.38075026e-06-4.76455921e-05
 1 46 2.57311756e-05 3.00353701e-05 4.59272232e-05-1.05476740e-06-2.81937733e-06
 1 47 4.35078593e-05-1.76662247e-05-8.53229407e-05-2.55445010e-05 2.44872514e-05
 1 48 1.70891987e-05 5.90681195e-04 9.13086480e-05 5.66299781e-06-3.73250502e-06
 1 49-7.09989567e-05-2.09974968e-05-2.73676247e-05 2.03865041e-05-1.04003430e-05
 1 50-1.54423497e-05-1.59912431e-03-9.14210991e-03 5.29533618e-04 1.13557487e-05
 1 51 9.13280800e-05-6.41730780e-02 4.77071521e-03-7.61037573e-03 3.45222705e-03
 1 52-4.60602929e-04 1.56548675e-04-7.35903360e-05 1.04574881e-04-1.58038644e-05
 1 53 8.48778837e-05-1.81890576e-03-1.21484454e-02-2.95282447e-03 7.88554416e-04
 1 54-1.01175027e-05 2.78870127e-02-3.59157976e-02 1.95271871e-02-4.13472962e-03
 1 55-7.79508698e-03-1.62088862e-02-1.55442308e-02-2.28440425e-03-5.51693914e-06
 1 56 2.66351251e-04
 2  1 9.96640882e-01-1.16788295e-02 8.02823800e-04 1.47508897e-03-2.50937890e-04
 2  2 2.12486899e-02-2.84232205e-04-8.21456761e-04 1.27479773e-04-6.11858904e-04
 2  3 3.75450670e-04-6.06605705e-05-7.58063938e-06-1.20756585e-03-3.18200355e-04
 2  4 1.57771506e-04 5.26649912e-05 8.93658620e-03 8.75768850e-03 8.74287175e-03
 2  5-1.97768043e-05-3.84519726e-05-7.64364523e-06 8.00576830e-04 3.18659197e-04
 2  6 3.52147071e-04 6.77781355e-05-6.68670310e-05-6.62739200e-05 6.96308996e-04
 2  7 4.29199937e-04-8.76810183e-05 1.72522872e-04-1.03777244e-04 2.24708885e-04
 2  8-6.65789614e-05 1.85076240e-04 1.74634905e-04-5.09612792e-05-1.28831895e-05
 2  9 2.68450660e-05 9.72009096e-06-5.73797348e-07-2.49482158e-06 1.39904816e-04
 2 10-9.82213469e-05 2.48988185e-06-5.26117509e-06 2.07766520e-04 4.47570888e-05
 2 11-5.93863472e-05-1.12904703e-04-3.63793593e-04 6.55318751e-05-7.47944793e-07
 2 12 9.17218512e-05 1.18058946e-04 8.90524275e-06 1.06734239e-05-2.52147780e-05
 2 13-1.68785325e-05 4.93923454e-06 9.52990461e-05-1.87471728e-04-1.06827448e-04
 2 14-2.71223948e-05 4.90099705e-05-4.96248626e-06-1.19595642e-04 1.65131112e-05
 2 15-5.68885073e-06 1.89648788e-05-2.70331024e-06 4.16567777e-06-2.62113271e-06
 2 16 8.49198770e-06-1.12346750e-06 4.06707650e-06 3.47071324e-05 1.41329133e-04
 2 17 7.49642002e-05-2.33057231e-05-2.99667597e-05-1.25993967e-03 5.53618408e-04
 2 18-2.67216015e-04 2.74972111e-04-4.20240652e-04 4.24663174e-05 1.34915907e-04
 2 19 2.15386090e-04 2.26447295e-05 8.59419486e-06-1.79024788e-06 9.69693834e-07
 2 20-2.17741503e-07-2.19653810e-06 3.16822811e-06 1.42938805e-05-1.19914524e-05
 2 21 9.69087343e-06 1.19378590e-05-8.35062790e-06-7.82272743e-06-1.11345166e-05
 2 22 1.65378452e-06 3.36444865e-06-4.76447221e-06-5.82952587e-06-2.29122471e-05
 2 23 5.71679912e-06-8.59496448e-07 2.20821782e-06 1.10470282e-04-3.32432165e-05
 2 24 3.93177681e-06-1.80209578e-05-1.26496474e-05-1.64922988e-05-2.30002981e-05
 2 25 4.43972825e-07 5.50404605e-06-1.95027837e-06-3.53486144e-06-1.55976992e-05
 2 26 4.84007690e-06-7.37740981e-06-5.83196052e-08 1.90887342e-04 1.34520156e-04
 2 27 2.16847512e-04 7.49577660e-05-1.78986374e-05-8.27073739e-08 6.15675019e-07
 2 28 4.48057215e-06-5.44669454e-06 1.17762612e-06-2.89984822e-06 1.18385191e-04
 2 29-1.59945118e-06-1.92628093e-06 1.12215592e-06 8.03416088e-04 1.69861181e-04
 2 30 6.58212961e-05-8.46576707e-05 3.50047992e-05 9.43319437e-05-4.45838820e-05
 2 31 4.73882215e-06 7.40300264e-04-7.34765017e-05-1.32182297e-04 4.45316893e-05
 2 32 1.89944480e-04 2.41447626e-04 2.33358918e-04 3.35089653e-05-8.82955316e-06
 2 33-2.13058018e-05-3.95042467e-04-5.58131453e-05-7.17225649e-05 2.66156555e-05
 2 34-5.05898258e-05-3.45112184e-05-1.99374433e-04 3.79202583e-04 5.08868601e-07
 2 35-3.13638577e-04 1.89047395e-04-2.94570361e-04-2.78716230e-04-3.27765319e-05
 2 36 1.32584837e-05 2.28642921e-04 4.64057786e-06 5.75289404e-05-2.27979442e-05
 2 37 1.87243756e-05 6.24119662e-05 4.66363985e-05-1.89687581e-05 1.84180621e-05
 2 38 9.47039140e-05 2.21448905e-05 2.16266945e-05 4.81130308e-05-1.31151516e-05
 2 39-2.77655413e-05-3.53302066e-06-2.24084854e-06 1.05237535e-05-2.42720368e-06
 2 40 5.79584149e-06 2.80020644e-07 6.72551840e-05 3.50199888e-05-4.25621252e-05
 2 41-9.03985001e-06 1.79048130e-04 7.01323434e-05-6.82311617e-05-2.03360843e-05
 2 42 7.86046120e-04-4.86071263e-05 2.18713964e-04 3.08005758e-05 3.02402439e-06
 2 43-3.62208335e-06-1.90664095e-05 2.12909828e-06-7.06345922e-07 6.87692127e-07
 2 44-1.74975786e-04 9.40501252e-05-3.36906561e-05-1.92687101e-04-6.10362482e-05
 2 45 7.62337973e-06 1.55824181e-05 7.09041710e-05-9.07528378e-06 8.65514264e-06
 2 46-4.48732193e-06-3.37123712e-05 5.55772713e-06 6.11168496e-06-1.11369060e-05
 2 47-8.76937203e-06-2.61087146e-06-3.44755902e-05-1.09727577e-06 4.04532670e-07
 2 48 6.51840145e-07 2.57462366e-04 8.08171534e-05-5.03849480e-05-3.14836729e-05
 2 49-2.47623770e-05 6.12527518e-05-1.74976801e-05-1.28428314e-05-4.60271346e-06
 2 50 8.72025553e-06 3.95241960e-05 2.93643969e-04 5.47891185e-05-1.44897228e-04
 2 51 6.28475826e-05 5.95330310e-04-3.39437304e-05 2.04397065e-05-5.88863099e-05
 2 52-1.77926204e-04-4.91085486e-04-8.26245784e-05-3.96360456e-04 2.47139316e-04
 2 53 3.66355022e-04-6.20726782e-06-4.03911599e-05-8.69135959e-06-1.79495862e-05
 2 54 9.53716270e-06 4.37182892e-04 3.34297192e-04-1.79631651e-04 1.85375623e-04
 2 55 1.75943593e-05 3.55843041e-04-6.26595910e-05 2.30224511e-04-1.27403036e-04
 2 56-2.94702093e-04
 3  1 9.28566750e-06-8.69810647e-06-2.81580882e-06 1.90475674e-06-1.18905322e-06
 3  2-2.03302473e-04-4.99401674e-06 1.04198336e-05-1.92304797e-05 8.31493149e-06
 3  3-3.73741467e-05 6.67192351e-05-1.18738189e-04-1.79872913e-04-1.81391690e-05
 3  4-7.73883614e-05 1.05373776e-04-1.46167687e-04-1.27425985e-04-1.24419917e-04
 3  5 1.41845879e-05 1.15290801e-06-1.67567376e-06-7.39598275e-05-2.24313197e-05
 3  6-5.91516709e-05 2.86140915e-05-7.86518759e-05-3.97071495e-06-6.41945011e-05
 3  7 1.77348767e-05 7.34131635e-06 4.02044827e-05-3.78518486e-05-7.09595604e-06
 3  8-5.43616811e-06-1.63482248e-05 1.26214818e-05 2.58523779e-06 9.96622945e-01
 3  9-1.17019586e-02-9.46422888e-05 2.08569831e-03-2.48770689e-04 2.15514587e-02
 3 10-5.68879853e-06-1.17307738e-03 1.36243699e-04-3.23032390e-06-2.23124631e-04
 3 11-2.62664264e-04-3.03722887e-06-6.46088202e-04 3.21554759e-04 3.18438727e-04
 3 12 2.40504145e-05 8.92228606e-03 8.89777908e-03 8.82123399e-03-6.53109853e-05
 3 13 2.70894604e-05-3.24295098e-05 5.90967648e-04 8.29977872e-04 3.41752117e-04
 3 14-2.51839068e-04-4.27352183e-05-1.49300728e-04-3.35539891e-04 8.24745551e-04
 3 15-7.69306774e-05 3.85790201e-04-7.64714366e-06-2.51790764e-04-1.73885735e-04
 3 16-7.53195109e-05 2.80530447e-04 5.89906853e-05 2.89042081e-05-2.66994916e-05
 3 17-2.28447966e-04 5.66508519e-05-1.01621698e-05-8.99295919e-04-4.23368204e-04
 3 18 5.53353620e-05 3.10907375e-04 1.66841743e-05 8.98009588e-05 6.48753531e-05
 3 19 7.22742770e-05-5.58524556e-05-1.96026043e-05-2.48464891e-06-9.41324869e-06
 3 20-3.06786541e-06 9.46500858e-07 2.93436515e-06 4.25833003e-05 1.24193526e-05
 3 21-4.95320378e-06-1.43262376e-05-7.54941602e-06-8.27125272e-06-7.12985885e-06
 3 22-8.62941707e-07-1.79856754e-06 1.25571328e-06-3.72287529e-06-4.24432984e-05
 3 23 4.10680594e-06-8.63113264e-06 7.43908021e-06 9.77705096e-05-2.75794051e-05
 3 24 3.82470463e-05-5.14516964e-05-3.12788276e-06-3.19150943e-05 2.27889396e-05
 3 25-6.95795285e-06 3.61443727e-05-1.79757293e-05-1.51371648e-05-1.52964831e-05
 3 26 2.04331461e-05 4.79831296e-05 1.78212193e-06-1.07238960e-04-2.91888545e-04
 3 27-1.46572810e-04-9.36078440e-05 5.23929372e-05-1.51623657e-04-3.65064796e-06
 3 28-4.19581359e-05 2.49093611e-06-2.12247660e-05 5.29658738e-06 3.01508910e-05
 3 29 6.10433574e-06-5.32745114e-06 1.96768135e-06 2.55735248e-04 5.03958225e-06
 3 30 3.53145257e-04-1.65815696e-04-5.77387029e-04 2.20131296e-04-2.33997643e-04
 3 31 9.38933571e-05-8.66824329e-05-2.27643306e-04 5.79930231e-05-5.97167243e-05
 3 32 9.70839820e-05 2.11414059e-04 1.23377029e-04 6.22971842e-05-3.27184144e-05
 3 33-6.62264948e-05-1.75523305e-04-4.78776511e-04-3.18595870e-04 3.65861019e-04
 3 34-1.28716695e-04 1.12179666e-05-2.43998514e-04 3.60525580e-04-3.98056933e-05
 3 35 2.54865138e-05 2.61660163e-05-2.08634564e-04-1.49547539e-04-3.71362548e-05
 3 36 7.19708198e-05 7.46009180e-05-8.34259284e-06-6.22373265e-05 1.55214184e-05
 3 37-5.11006333e-06 4.90337678e-06 2.24078796e-04 1.07662694e-04-1.99944961e-05
 3 38 1.89680782e-04 9.42485117e-06-4.49644292e-05 2.95798124e-05-1.18430389e-05
 3 39 6.63748971e-05-2.59057133e-05-1.05094295e-06 2.73924447e-05 6.77997254e-06
 3 40 3.62633811e-06 6.98053351e-07 2.88612809e-04-9.23572102e-05-1.95736096e-05
 3 41 7.62505300e-06 1.85308976e-04-1.81033196e-04-9.65297536e-06 3.62710767e-05
 3 42 8.32463671e-04 2.40013188e-04 1.44808888e-04-2.34483792e-05 8.11279885e-05
 3 43 1.17140806e-04 7.58022469e-05 2.86631948e-06 2.33240655e-06 4.44914891e-06
 3 44 3.56824679e-04 3.11203965e-05-4.75917614e-05 1.25913554e-04 5.13764399e-05
 3 45 6.52229482e-06 3.92207213e-05 4.53366219e-05 2.07153645e-05 1.76494747e-05
 3 46 3.40676298e-06 9.27080066e-05 1.99237846e-06-3.28674286e-05 8.66934272e-06
 3 47 6.82090046e-06 9.48967794e-07-4.03226609e-06 3.54727912e-07 1.73617475e-06
 3 48 2.54357053e-07-3.66132869e-04-6.27305261e-05 6.91528950e-05 3.61442676e-05
 3 49 2.23138889e-05 1.13212471e-05-4.97074788e-06 8.78209615e-06 9.17421306e-06
 3 50 3.78225596e-06-3.95389650e-05-2.88124409e-04 6.10398108e-05-4.23200597e-05
 3 51 4.78315335e-06 6.39675015e-04 1.91643141e-04 4.74000514e-04-1.78798209e-04
 3 52-9.13695964e-05-3.28484120e-04-1.42548452e-04-1.03233409e-04 2.53717794e-05
 3 53 1.16314790e-04 2.17809710e-05 1.79194188e-04 8.01417788e-06-1.96868776e-04
 3 54 8.85959905e-05 4.08155569e-04-2.42356653e-04-5.49511648e-04 2.38512110e-04
 3 55-3.40103531e-05-4.25807160e-04-8.11678991e-05 3.84348288e-04-1.89646369e-04
 3 56 1.87912312e-04
 4  1-2.95054122e-06 7.11431724e-05 4.10440065e-06-4.41608233e-06-6.15143341e-07
 4  2 5.23335055e-04-3.89494617e-05 2.64156121e-05-7.10067866e-07 1.37073993e-03
 4  3-3.50995678e-04 1.92853033e-04 4.83071652e-05 2.44240827e-03 2.74532971e-04
 4  4-6.78822024e-04-7.08316617e-05 1.44943172e-04 1.58626872e-04 1.22936627e-04
 4  5-3.98016211e-05-2.05446753e-05 1.75573000e-05 6.58258673e-05 1.48711911e-04
 4  6 2.22875337e-05-1.23113084e-04-3.70564742e-05 2.24606145e-05 9.38714453e-05
 4  7-1.10970258e-04-2.82668108e-05-4.33628172e-05-2.57269589e-05 9.88532927e-05
 4  8-1.45520049e-05 7.21403073e-05-6.28446288e-05 1.03562534e-05 8.14513594e-06
 4  9 9.41969096e-05-7.27752551e-06-3.11010493e-07-4.64832774e-06 9.94021661e-04
 4 10 4.41625848e-05-4.85944218e-05 1.31599648e-06 1.69443047e-03 5.12475554e-04
 4 11-1.29821676e-04 3.80990972e-06 2.69992715e-03-5.98698253e-04-5.67395677e-04
 4 12 2.70655278e-05 5.08213545e-04 4.71779267e-04 4.35532423e-04 6.73147372e-05
 4 13 1.77659826e-05 3.12850546e-06 2.46896514e-04 4.58679542e-04 2.39654150e-04
 4 14 2.22195860e-05 1.27062245e-04-2.12592226e-05-1.88848067e-04-6.63000207e-05
 4 15-6.19459771e-05-1.00404694e-04-7.22858680e-05-1.54090884e-04-2.76225102e-05
 4 16-1.40264632e-04-5.42313171e-05 1.66040200e-05 8.32585050e-05 6.34336374e-04
 4 17-3.69356520e-05-1.06524256e-04-5.81730716e-05-2.41667603e-03-1.36065934e-04
 4 18 8.94891147e-05 9.25100681e-04 1.30139348e-04-2.40845477e-04 2.88191881e-04
 4 19-4.16999779e-05 1.96937330e-05-1.94071910e-05-2.10056550e-06-1.26993406e-05
 4 20-3.73411178e-06-1.13803260e-06 6.24547482e-07 5.39835283e-05 2.08991059e-05
 4 21-6.85847715e-06-1.96510890e-05-4.00364632e-06-7.78414461e-06-2.37221177e-06
 4 22-1.44936534e-07-3.40623490e-06-9.44339752e-07 5.70597403e-06 2.26757456e-05
 4 23-2.46101987e-06-3.75247314e-06-9.38452517e-06-5.64062947e-05 1.07857512e-05
 4 24 1.54142298e-05 5.42630942e-05 2.13476260e-05 2.63940455e-05 1.63010742e-06
 4 25-7.35695885e-06-1.98279466e-05-6.24580757e-06 2.95659943e-06 7.16986112e-04
 4 26-8.66004684e-04 8.39777747e-06-6.85602718e-06 9.54291591e-03-3.55056459e-03
 4 27-5.27391239e-04-1.09001978e-04 7.08506622e-04-5.61424025e-04-4.39062868e-04
 4 28-8.89798242e-05 4.50375541e-06-3.23298623e-05 4.90810953e-06 1.63762944e-05
 4 29 8.25036286e-07 3.17690338e-06 1.64340896e-06 2.59915812e-04-6.04025223e-06
 4 30-1.02616326e-04 6.41677578e-05-1.21231007e-03-1.05957660e-04-5.34528621e-04
 4 31 2.59866894e-04 7.43923153e-05 5.16923689e-05-5.14171663e-06-9.27938257e-05
 4 32 1.21139399e-04 1.90562675e-04 1.59231709e-04 8.17522290e-06 3.82971175e-06
 4 33 9.57559657e-06-1.41899926e-04-1.99138998e-04-2.49449851e-04 2.88011739e-04
 4 34-1.31195887e-04-5.02739840e-05-3.79192307e-05-2.41072095e-05 8.28203803e-05
 4 35-6.96417216e-06 7.59447478e-05-1.66054022e-05 6.88384386e-06-2.56048735e-05
 4 36-5.68099074e-05 1.59201660e-04 2.66427511e-05 1.25927175e-04 8.18601742e-06
 4 37-6.28863567e-05 1.02364475e-04-6.06791081e-06 3.35103488e-05-1.04922518e-04
 4 38 3.10829147e-04 9.60547416e-05 8.54155360e-05 1.65324756e-04 2.03089204e-05
 4 39 1.99739237e-05-2.14254318e-05 9.95819888e-01-1.36330959e-02 2.67328694e-04
 4 40 8.16712363e-04-5.44025480e-05 1.55297221e-02-8.31024454e-04-2.79261880e-04
 4 41 4.95508568e-05-4.61938789e-03 6.12035077e-05 8.71484837e-04 1.77464755e-04
 4 42-5.80348031e-03-3.95707280e-04-1.49259536e-03-2.48954044e-04 1.84372928e-03
 4 43 2.42662340e-03 2.34676697e-03-1.39413076e-05-9.16764397e-06-7.40958920e-06
 4 44-7.06746974e-03-3.40530556e-03-3.70646576e-03 6.14784494e-04 2.58756126e-05
 4 45 9.40430231e-05-9.11000358e-04 4.92728014e-04-1.53439599e-05 1.62420424e-04
 4 46-2.99654333e-05 1.65646014e-04 2.22100385e-05 1.85957120e-05 1.21549484e-04
 4 47 2.22551018e-05-1.32010282e-04-7.77084065e-04-1.94095068e-04 2.12497680e-05
 4 48 3.56781401e-06 7.03559758e-03 2.95685708e-03 1.62264622e-04 4.39317853e-05
 4 49 4.32056221e-04-2.22569337e-04-2.26176579e-04 1.93891140e-05 1.33013905e-05
 4 50-7.79683776e-06-1.61953486e-05-1.14724430e-04 2.80332076e-05-2.54803053e-05
 4 51 1.79139729e-05 1.02482242e-03 2.48309392e-04 1.43450035e-05-1.23723645e-04
 4 52-7.37401243e-05-3.87454231e-05-7.99111806e-05-5.86384801e-05 2.30669619e-05
 4 53 8.43976469e-05-6.79713172e-06-6.74510111e-05-4.14386573e-06-1.74663109e-05
 4 54 1.96443544e-05 4.84838461e-04-2.13754778e-04-4.70208973e-04 1.45234751e-04
 4 55-3.37743181e-05-5.93877753e-05-4.56223370e-05 2.12690738e-05-5.77582488e-05
 4 56-1.83776169e-04
 5  1-6.97452504e-04-1.74238435e-03 4.75718917e-04 6.28311368e-05-1.36927069e-04
 5  2-2.56501075e-02-4.99853347e-03-7.72262158e-04 5.21582744e-04-1.26676524e-02
 5  3 3.06751112e-03 5.84537162e-03-6.66672682e-03 7.71997590e-03 1.37448234e-03
 5  4 2.88334871e-03 2.84315861e-03-1.95402266e-02-1.88440869e-02-1.76475268e-02
 5  5-5.42421084e-04 8.27419683e-04 1.42422861e-03-3.84624151e-03-9.91535040e-03
 5  6-8.12808964e-03-1.27311545e-03-2.43283887e-03-1.56089059e-03-1.62006259e-03
 5  7-4.24397821e-03 3.29203745e-03 2.56875173e-03-2.08491974e-03-3.13340063e-03
 5  8 2.71491069e-04-2.78635212e-03-2.56583997e-03-1.47462758e-03 3.79313127e-04
 5  9 1.23407880e-03-4.57377803e-04 1.15827422e-04-1.53548232e-04 2.57155721e-02
 5 10 5.23332684e-03-4.20574533e-04-1.35895533e-04 5.59928838e-03 2.54337082e-03
 5 11 1.09385937e-02-5.41049713e-03 5.49918749e-02-5.20343842e-03 8.95614457e-03
 5 12 8.17502107e-04 1.38921230e-02 1.65803818e-02 1.46915273e-02-2.74688476e-03
 5 13 1.19256213e-03-9.05014902e-04 1.13439221e-02 3.00460216e-02 6.58139425e-03
 5 14 1.09560184e-02-2.56094753e-03-6.98890475e-03 3.61581132e-03 2.98936091e-03
 5 15 5.69977589e-04 2.28439671e-03-1.53892091e-03-8.53837495e-03-5.22672342e-03
 5 16 2.15156074e-03-7.36466256e-04 3.44610696e-03-1.95019403e-03-1.29412522e-02
 5 17-4.24633839e-04-2.15559188e-03 1.24207994e-03 6.17377453e-02-1.04319223e-02
 5 18 2.43652070e-02-1.56509908e-02 3.26983718e-03-2.19508146e-03-3.95292662e-03
 5 19-2.29443835e-03-2.41185546e-04-1.78781346e-03-7.23580179e-05-3.20179225e-04
 5 20-1.02543196e-05 1.64543208e-04 3.09091002e-05 1.40569749e-03 9.16661262e-05
 5 21-5.46295111e-04-2.28462065e-04-2.80416445e-04-2.04300581e-04-1.53905211e-04
 5 22-4.72706243e-05 1.22236658e-05 1.85983439e-04 1.75054833e-04 5.47696102e-04
 5 23 4.00514101e-05 9.17028670e-05-2.48780837e-04-2.23403495e-03 2.56106506e-05
 5 24-7.53878389e-04 1.33772563e-03 7.30407964e-04 6.42966648e-04 2.78718626e-04
 5 25-1.01125872e-04-2.18827094e-06 5.12193137e-05-8.08488771e-05 4.10494879e-04
 5 26 9.35696191e-06-1.41897168e-04-1.01689629e-04-8.40277924e-03-5.52131574e-03
 5 27-1.37916158e-02-6.52408919e-03-1.46850855e-03-2.55276262e-03 5.40065058e-05
 5 28-2.22049389e-03 7.09273983e-05-1.79767708e-03 2.10943451e-01 7.32242759e-01
 5 29-6.13063643e-01 2.51524636e-01-5.42000775e-02 1.21924155e-01 3.69979657e-01
 5 30-1.38453562e-01 2.44022190e-02-6.86407598e-02 3.16516385e-03 3.84806710e-04
 5 31-2.48884056e-04-9.07212870e-02-4.89849348e-03 2.10707401e-02-9.93930691e-03
 5 32 9.64464171e-02 2.33610690e-01 2.57251103e-01 7.85875743e-02-1.30524092e-02
 5 33 2.85361095e-03 3.78700195e-01-3.11644331e-02-1.65484869e-01-3.27693211e-01
 5 34 7.43512655e-02-2.84663966e-02 1.07121997e-01-6.80886920e-02 1.07979857e-02
 5 35 1.18883748e-02-9.83643809e-03 7.13134972e-02 8.25290235e-03 7.31549541e-02
 5 36-2.76097036e-02-2.06518395e-03 1.52773874e-03 7.02917131e-03-6.71514550e-04
 5 37 5.22193868e-04-9.65705841e-04-2.59027413e-02 1.05153460e-03-4.71465865e-03
 5 38-8.28337813e-03 2.20199612e-03 4.66816673e-03 3.24857098e-03 6.27394381e-04
 5 39-1.45444116e-03-1.92401437e-03-8.90372703e-05-2.07393097e-05 3.12475593e-05
 5 40 4.31454831e-05-1.25048776e-05-1.24073951e-03 6.56895490e-04 1.95019332e-04
 5 41 1.43406975e-03-6.96990855e-03 7.61881328e-04 3.30785665e-03 5.33037557e-03
 5 42 1.14482809e-02-1.88801526e-04 3.93869877e-03-4.50279301e-03-1.45855328e-03
 5 43-1.60657455e-03-1.89007389e-03-5.30304385e-04 2.70120758e-05 1.73623454e-04
 5 44-7.55002089e-03-4.96467424e-03-3.20385167e-03 2.93588955e-03 1.75220860e-03
 5 45-1.38239521e-04 4.02325977e-04 5.32147081e-04 8.94416832e-04-1.13151940e-03
 5 46 4.02521129e-04 1.44394932e-03-1.90057416e-04 6.10555555e-04 2.81406163e-04
 5 47 2.36852916e-04-2.81732962e-04-1.28759961e-03-4.44242009e-06 3.49502362e-04
 5 48 1.35228801e-04 1.17018578e-02 3.14036896e-03 3.56526627e-03 2.92749446e-04
 5 49-6.88956139e-04-3.20536874e-04-9.63946724e-04 7.79088725e-04-1.30181228e-04
 5 50 7.83400325e-05 4.36113849e-02 1.88737907e-01 5.78808178e-02-2.29339323e-02
 5 51-2.84063716e-03-5.01896205e-01 1.63551868e-01-1.72395406e-01 7.42302008e-02
 5 52-9.59328799e-02-6.62536337e-02-7.19812893e-02 1.56596989e-02-9.21226013e-03
 5 53-2.47185339e-03-3.54208623e-01-4.98000872e-01 3.96023228e-02-1.84369520e-02
 5 54 4.52283700e-03 6.15069444e-01-6.50867751e-01 3.80377588e-01-1.07800553e-01
 5 55-1.71851731e-01-2.87774622e-01-2.80108369e-01-4.57310539e-02 1.07709153e-02
 5 56 8.45005620e-03
 6  1-4.80884822e-04-1.19042027e-03 3.96422939e-04 8.49476179e-05-1.08317329e-04
 6  2-1.83356313e-02-3.00616522e-03-2.46046263e-04 7.79322481e-04-5.13460034e-03
 6  3 3.66601705e-03-5.12273420e-04 4.29169845e-04-9.25358984e-03-9.21606925e-03
 6  4 1.42676356e-02-1.90650826e-03-1.39377115e-02-1.34698969e-02-1.19947876e-02
 6  5-3.59140444e-04 4.26163749e-04 5.72612286e-04-1.56340005e-03-3.61221103e-03
 6  6-7.43927097e-03 6.29739638e-04-6.95983907e-04-2.61159001e-04 8.44886694e-04
 6  7-1.07909854e-03 5.35818604e-04 2.63751752e-03-1.69388029e-03-3.25399884e-03
 6  8 9.96806282e-04-2.18456209e-03 3.52988996e-05 2.93134991e-04 4.34096410e-04
 6  9 1.66473321e-03-1.48994159e-04-1.43208240e-04 8.47472710e-05 2.79264487e-02
 6 10 3.81635094e-03 4.80904699e-03-2.04235016e-03-1.75479934e-02 6.61804521e-03
 6 11 3.06675731e-02-1.27982221e-02 1.86697946e-02-1.73330357e-02-1.52516127e-02
 6 12 7.52074206e-03 1.39717196e-02 1.98955154e-02 1.48366792e-02-3.96443978e-03
 6 13 1.72830142e-03-1.94892064e-03 3.07142222e-03 1.63194960e-02 6.77768888e-04
 6 14-5.86747121e-04-1.79012291e-03-1.02116303e-02 4.59482892e-03 6.73667283e-03
 6 15 3.73975486e-03 1.23793170e-03-9.40669699e-05-8.14993244e-03-6.65729792e-03
 6 16 9.30369353e-04-1.50974990e-03 4.49800549e-03-1.52049919e-03-9.28460317e-03
 6 17-1.74017001e-04 5.94480824e-04 6.07273203e-05 2.98041440e-02-2.03798834e-02
 6 18 1.53756508e-02-9.31736656e-03 1.13165485e-03-1.19653040e-04-3.82512238e-03
 6 19-4.33168429e-03 8.68042596e-04-2.83546619e-03-4.46039447e-05-2.17801764e-04
 6 20 9.59213766e-05 1.31865239e-04-1.42809445e-04 1.00434018e-03-2.95765726e-04
 6 21-3.75753911e-04 3.75381332e-04-2.02353980e-04-9.52183165e-05-7.47421635e-05
 6 22-3.24968570e-05 1.23017939e-04 1.46782363e-04-1.73487387e-04-1.04985115e-03
 6 23 5.14823225e-04-5.77790966e-06 1.98249643e-04 3.39948269e-03-2.57563213e-03
 6 24-5.64481654e-05-1.45011105e-03-2.00162286e-04-7.44851290e-04-3.05739029e-04
 6 25-4.16762760e-04 8.34471108e-04-5.35668873e-04-4.81427580e-04-2.07302972e-03
 6 26-3.20101547e-04-5.76222330e-04-2.14665850e-04 9.73844901e-03-3.28277059e-03
 6 27 1.23592549e-03-4.60784410e-03-2.02852181e-03-1.28525268e-03-1.91965947e-03
 6 28-2.59348562e-04 3.24358012e-04-1.20502224e-03 2.14911367e-01 8.61684004e-01
 6 29 6.92351674e-01-2.58745945e-01-6.45100261e-02 4.47840357e-01-3.50655328e-01
 6 30 1.55446728e-01 1.01556213e-02 2.17720071e-03-4.97312493e-02 2.71165604e-02
 6 31-4.56818473e-03-1.10424120e-02 3.03768555e-02-4.47653798e-03-2.82768524e-03
 6 32 1.99844318e-01 2.54494389e-01 2.62080135e-01 3.31158084e-02-3.53387813e-03
 6 33-2.57252452e-04 2.38736064e-01 1.65924976e-02-8.10580335e-02-2.15652470e-01
 6 34 3.56319103e-02-1.86020430e-02 1.10976961e-01-9.46795315e-02 4.89027548e-03
 6 35 4.07800639e-02-1.20702655e-02 9.68083322e-02 3.64518918e-03 1.15157935e-01
 6 36-4.17182315e-02 1.15371811e-03 5.66082484e-04 2.34796051e-03-8.41015376e-04
 6 37 1.33141079e-03-3.61164422e-04-9.34331866e-03-3.92109734e-03 5.43263718e-03
 6 38-2.52871415e-03-2.30495879e-03 6.22928480e-03 1.61436867e-03-9.51081582e-04
 6 39-1.68271980e-03 2.02593920e-03 3.04051217e-05-5.68996850e-04-4.49718371e-05
 6 40-5.53904463e-05-2.93580212e-05-2.63209502e-03 1.55652793e-03 1.46260887e-03
 6 41 1.06458690e-03-1.96519667e-02 7.57614427e-03 7.28360684e-03 3.19871836e-03
 6 42-6.69313533e-03-1.01043506e-02 1.21712729e-03-2.14776471e-03-2.55094276e-04
 6 43-5.55982961e-04-2.79690250e-04-2.14348445e-04 5.97292388e-05 2.11129671e-04
 6 44-3.60149720e-03-3.43494338e-03-3.28259736e-03 1.46007321e-03 1.36051747e-03
 6 45-9.91091348e-04-1.35881758e-03-8.74203448e-04 4.63130982e-04-1.07149574e-04
 6 46 5.11955790e-04 2.31874171e-04-2.13368176e-04-2.68559675e-04-1.49399335e-04
 6 47 7.42871637e-05 5.13455046e-05 3.56684924e-04-1.69425176e-04 4.00231937e-04
 6 48 1.85394224e-04-6.38564238e-04-8.39175460e-04-1.76150379e-03-5.97743130e-04
 6 49-8.27344883e-05-1.46753019e-04 6.07387759e-04-1.95756250e-04-2.05723571e-04
 6 50-1.11369194e-04-8.13041286e-02-1.59807616e-01-3.18719135e-03 6.47510051e-03
 6 51-9.61095281e-04-7.00257855e-01 5.55061873e-02-9.82049866e-02 3.02562253e-02
 6 52 1.96128514e-02 3.26217973e-02 3.26847278e-02 1.27491170e-02-7.38879842e-03
 6 53 1.01680867e-03 8.75532895e-02 8.15432112e-02-7.25408917e-02 2.29542857e-02
 6 54-1.14387333e-02 7.70135004e-01-4.33083098e-01 2.51131875e-01-4.55114238e-02
 6 55-1.58046954e-01-2.87202025e-01-2.74207318e-01-3.78137879e-02 8.46759744e-03
 6 56 5.70172826e-03
 7  1-2.41319674e-04 1.16615243e-04 2.94206138e-04-1.61665686e-04 5.34486136e-05
 7  2-5.94293176e-03-4.20375056e-03 2.79529696e-03-5.67083108e-04 2.98991756e-02
 7  3-1.32169471e-02 3.04914858e-03 7.46801799e-04 7.60430810e-03 1.46571473e-03
 7  4-7.16126113e-03 1.61651654e-03-6.51602994e-03-5.46992951e-03-4.82198145e-03
 7  5 6.33105790e-04 1.21733163e-04-2.76239108e-05-8.26504639e-04 6.32819977e-03
 7  6 5.40685979e-04-2.99918258e-03 8.58414613e-04-6.61141554e-04 1.65359175e-03
 7  7-2.61758575e-05-8.64670568e-04 2.09852332e-03-1.87389310e-03-2.54231945e-03
 7  8 2.82141197e-03-8.96208480e-04 1.29703934e-03 1.32594692e-03-1.23418720e-03
 7  9-5.99582839e-04-6.01334565e-04 7.92139636e-05-8.22661255e-06-3.90784236e-02
 7 10 7.71698961e-03-8.80091976e-03 2.69011728e-03 8.87793959e-02 2.58047944e-02
 7 11-3.57565986e-02 1.29794496e-02 3.82077754e-02-6.13852590e-03 1.44805803e-02
 7 12-4.51457919e-03-3.00996488e-02-3.61500564e-02-2.94769452e-02 2.12306184e-03
 7 13 2.83152618e-04 3.68687502e-03 4.03935878e-03-1.79488669e-02 2.85457033e-03
 7 14 2.49991324e-03-1.21206244e-03 6.19141436e-03-2.75190177e-03-1.65509536e-02
 7 15-1.28589686e-03 3.32729036e-03-2.41561175e-03 1.80472126e-03 9.06189362e-03
 7 16-1.92824997e-03-1.19925785e-03-1.32344549e-03 9.34491011e-04 7.80709942e-03
 7 17 4.03980004e-03 5.32071445e-03-3.72863081e-03 3.62938492e-02 3.83850327e-03
 7 18 3.49213694e-02-6.52193641e-03 6.05443432e-03 3.49124765e-03 6.90219679e-04
 7 19-3.90783527e-03 6.83535682e-06-1.36312710e-03-1.41824497e-04-5.06341164e-04
 7 20-1.60671295e-04 8.53850891e-05 5.54076232e-05 2.35434987e-03 6.56131132e-04
 7 21-3.43948050e-04-4.31181692e-04-4.30228523e-04-4.71429597e-04-4.32968527e-04
 7 22-9.06498303e-05-8.57179053e-05 7.99522210e-05-1.61055548e-04-3.83586279e-04
 7 23 2.01623677e-04-1.21484121e-04-4.10683608e-05 2.74204185e-03-7.92211446e-04
 7 24 7.46322524e-04 1.73915751e-04-4.81183573e-04-4.21532772e-04-8.07381099e-04
 7 25 2.37278059e-04-2.87515948e-04 8.63850492e-05 3.20173497e-04 1.93970858e-03
 7 26 1.60211497e-04 4.39066063e-04 2.03856035e-04 1.44126054e-02-1.36157530e-03